p cnf 64 163
2 0
3 0
5 0
7 0
9 0
11 0
13 0
15 0
1 18 0
3 18 0
17 2 4 0
3 20 0
1 20 0
5 20 0
19 4 2 6 0
5 22 0
3 22 0
7 22 0
21 6 4 8 0
7 24 0
5 24 0
9 24 0
23 8 6 10 0
9 26 0
7 26 0
11 26 0
25 10 8 12 0
11 28 0
9 28 0
13 28 0
27 12 10 14 0
13 30 0
11 30 0
15 30 0
29 14 12 16 0
15 32 0
13 32 0
31 16 14 0
17 34 0
19 34 0
33 18 20 0
19 36 0
17 36 0
21 36 0
35 20 18 22 0
21 38 0
19 38 0
23 38 0
37 22 20 24 0
23 40 0
21 40 0
25 40 0
39 24 22 26 0
25 42 0
23 42 0
27 42 0
41 26 24 28 0
27 44 0
25 44 0
29 44 0
43 28 26 30 0
29 46 0
27 46 0
31 46 0
45 30 28 32 0
31 48 0
29 48 0
47 32 30 0
33 50 0
35 50 0
49 34 36 0
35 52 0
33 52 0
37 52 0
51 36 34 38 0
37 54 0
35 54 0
39 54 0
53 38 36 40 0
39 56 0
37 56 0
41 56 0
55 40 38 42 0
41 58 0
39 58 0
43 58 0
57 42 40 44 0
43 60 0
41 60 0
45 60 0
59 44 42 46 0
45 62 0
43 62 0
47 62 0
61 46 44 48 0
47 64 0
45 64 0
63 48 46 0
64 0
1 2 0
-1 -2 0
3 4 0
-3 -4 0
5 6 0
-5 -6 0
7 8 0
-7 -8 0
9 10 0
-9 -10 0
11 12 0
-11 -12 0
13 14 0
-13 -14 0
15 16 0
-15 -16 0
17 18 0
-17 -18 0
19 20 0
-19 -20 0
21 22 0
-21 -22 0
23 24 0
-23 -24 0
25 26 0
-25 -26 0
27 28 0
-27 -28 0
29 30 0
-29 -30 0
31 32 0
-31 -32 0
33 34 0
-33 -34 0
35 36 0
-35 -36 0
37 38 0
-37 -38 0
39 40 0
-39 -40 0
41 42 0
-41 -42 0
43 44 0
-43 -44 0
45 46 0
-45 -46 0
47 48 0
-47 -48 0
49 50 0
-49 -50 0
51 52 0
-51 -52 0
53 54 0
-53 -54 0
55 56 0
-55 -56 0
57 58 0
-57 -58 0
59 60 0
-59 -60 0
61 62 0
-61 -62 0
63 64 0
-63 -64 0
