p cnf 128 347
2 0
3 0
5 0
7 0
9 0
11 0
13 0
15 0
1 18 0
3 18 0
17 2 4 0
3 20 0
1 20 0
5 20 0
19 4 2 6 0
5 22 0
3 22 0
7 22 0
21 6 4 8 0
7 24 0
5 24 0
9 24 0
23 8 6 10 0
9 26 0
7 26 0
11 26 0
25 10 8 12 0
11 28 0
9 28 0
13 28 0
27 12 10 14 0
13 30 0
11 30 0
15 30 0
29 14 12 16 0
15 32 0
13 32 0
31 16 14 0
17 34 0
19 34 0
33 18 20 0
19 36 0
17 36 0
21 36 0
35 20 18 22 0
21 38 0
19 38 0
23 38 0
37 22 20 24 0
23 40 0
21 40 0
25 40 0
39 24 22 26 0
25 42 0
23 42 0
27 42 0
41 26 24 28 0
27 44 0
25 44 0
29 44 0
43 28 26 30 0
29 46 0
27 46 0
31 46 0
45 30 28 32 0
31 48 0
29 48 0
47 32 30 0
33 50 0
35 50 0
49 34 36 0
35 52 0
33 52 0
37 52 0
51 36 34 38 0
37 54 0
35 54 0
39 54 0
53 38 36 40 0
39 56 0
37 56 0
41 56 0
55 40 38 42 0
41 58 0
39 58 0
43 58 0
57 42 40 44 0
43 60 0
41 60 0
45 60 0
59 44 42 46 0
45 62 0
43 62 0
47 62 0
61 46 44 48 0
47 64 0
45 64 0
63 48 46 0
49 66 0
51 66 0
65 50 52 0
51 68 0
49 68 0
53 68 0
67 52 50 54 0
53 70 0
51 70 0
55 70 0
69 54 52 56 0
55 72 0
53 72 0
57 72 0
71 56 54 58 0
57 74 0
55 74 0
59 74 0
73 58 56 60 0
59 76 0
57 76 0
61 76 0
75 60 58 62 0
61 78 0
59 78 0
63 78 0
77 62 60 64 0
63 80 0
61 80 0
79 64 62 0
65 82 0
67 82 0
81 66 68 0
67 84 0
65 84 0
69 84 0
83 68 66 70 0
69 86 0
67 86 0
71 86 0
85 70 68 72 0
71 88 0
69 88 0
73 88 0
87 72 70 74 0
73 90 0
71 90 0
75 90 0
89 74 72 76 0
75 92 0
73 92 0
77 92 0
91 76 74 78 0
77 94 0
75 94 0
79 94 0
93 78 76 80 0
79 96 0
77 96 0
95 80 78 0
81 98 0
83 98 0
97 82 84 0
83 100 0
81 100 0
85 100 0
99 84 82 86 0
85 102 0
83 102 0
87 102 0
101 86 84 88 0
87 104 0
85 104 0
89 104 0
103 88 86 90 0
89 106 0
87 106 0
91 106 0
105 90 88 92 0
91 108 0
89 108 0
93 108 0
107 92 90 94 0
93 110 0
91 110 0
95 110 0
109 94 92 96 0
95 112 0
93 112 0
111 96 94 0
97 114 0
99 114 0
113 98 100 0
99 116 0
97 116 0
101 116 0
115 100 98 102 0
101 118 0
99 118 0
103 118 0
117 102 100 104 0
103 120 0
101 120 0
105 120 0
119 104 102 106 0
105 122 0
103 122 0
107 122 0
121 106 104 108 0
107 124 0
105 124 0
109 124 0
123 108 106 110 0
109 126 0
107 126 0
111 126 0
125 110 108 112 0
111 128 0
109 128 0
127 112 110 0
128 0
1 2 0
-1 -2 0
3 4 0
-3 -4 0
5 6 0
-5 -6 0
7 8 0
-7 -8 0
9 10 0
-9 -10 0
11 12 0
-11 -12 0
13 14 0
-13 -14 0
15 16 0
-15 -16 0
17 18 0
-17 -18 0
19 20 0
-19 -20 0
21 22 0
-21 -22 0
23 24 0
-23 -24 0
25 26 0
-25 -26 0
27 28 0
-27 -28 0
29 30 0
-29 -30 0
31 32 0
-31 -32 0
33 34 0
-33 -34 0
35 36 0
-35 -36 0
37 38 0
-37 -38 0
39 40 0
-39 -40 0
41 42 0
-41 -42 0
43 44 0
-43 -44 0
45 46 0
-45 -46 0
47 48 0
-47 -48 0
49 50 0
-49 -50 0
51 52 0
-51 -52 0
53 54 0
-53 -54 0
55 56 0
-55 -56 0
57 58 0
-57 -58 0
59 60 0
-59 -60 0
61 62 0
-61 -62 0
63 64 0
-63 -64 0
65 66 0
-65 -66 0
67 68 0
-67 -68 0
69 70 0
-69 -70 0
71 72 0
-71 -72 0
73 74 0
-73 -74 0
75 76 0
-75 -76 0
77 78 0
-77 -78 0
79 80 0
-79 -80 0
81 82 0
-81 -82 0
83 84 0
-83 -84 0
85 86 0
-85 -86 0
87 88 0
-87 -88 0
89 90 0
-89 -90 0
91 92 0
-91 -92 0
93 94 0
-93 -94 0
95 96 0
-95 -96 0
97 98 0
-97 -98 0
99 100 0
-99 -100 0
101 102 0
-101 -102 0
103 104 0
-103 -104 0
105 106 0
-105 -106 0
107 108 0
-107 -108 0
109 110 0
-109 -110 0
111 112 0
-111 -112 0
113 114 0
-113 -114 0
115 116 0
-115 -116 0
117 118 0
-117 -118 0
119 120 0
-119 -120 0
121 122 0
-121 -122 0
123 124 0
-123 -124 0
125 126 0
-125 -126 0
127 128 0
-127 -128 0
