p cnf 3430 7105
1 3 5 0
1 3 7 0
1 3 9 0
1 5 7 0
1 5 9 0
1 7 9 0
3 5 7 0
3 5 9 0
3 7 9 0
5 7 9 0
1 4 6 8 10 0
3 2 6 8 10 0
5 2 4 8 10 0
7 2 4 6 10 0
9 2 4 6 8 0
1 11 13 0
1 11 15 0
1 11 17 0
1 13 15 0
1 13 17 0
1 15 17 0
11 13 15 0
11 13 17 0
11 15 17 0
13 15 17 0
1 12 14 16 18 0
11 2 14 16 18 0
13 2 12 16 18 0
15 2 12 14 18 0
17 2 12 14 16 0
3 11 19 0
3 11 21 0
3 11 23 0
3 19 21 0
3 19 23 0
3 21 23 0
11 19 21 0
11 19 23 0
11 21 23 0
19 21 23 0
3 12 20 22 24 0
11 4 20 22 24 0
19 4 12 22 24 0
21 4 12 20 24 0
23 4 12 20 22 0
5 13 19 0
5 13 25 0
5 13 27 0
5 19 25 0
5 19 27 0
5 25 27 0
13 19 25 0
13 19 27 0
13 25 27 0
19 25 27 0
5 14 20 26 28 0
13 6 20 26 28 0
19 6 14 26 28 0
25 6 14 20 28 0
27 6 14 20 26 0
7 15 21 0
7 15 25 0
7 15 29 0
7 21 25 0
7 21 29 0
7 25 29 0
15 21 25 0
15 21 29 0
15 25 29 0
21 25 29 0
7 16 22 26 30 0
15 8 22 26 30 0
21 8 16 26 30 0
25 8 16 22 30 0
29 8 16 22 26 0
9 17 23 0
9 17 27 0
9 17 29 0
9 23 27 0
9 23 29 0
9 27 29 0
17 23 27 0
17 23 29 0
17 27 29 0
23 27 29 0
9 18 24 28 30 0
17 10 24 28 30 0
23 10 18 28 30 0
27 10 18 24 30 0
29 10 18 24 28 0
1 31 33 0
1 31 35 0
1 31 37 0
1 33 35 0
1 33 37 0
1 35 37 0
31 33 35 0
31 33 37 0
31 35 37 0
33 35 37 0
1 32 34 36 38 0
31 2 34 36 38 0
33 2 32 36 38 0
35 2 32 34 38 0
37 2 32 34 36 0
3 31 39 0
3 31 41 0
3 31 43 0
3 39 41 0
3 39 43 0
3 41 43 0
31 39 41 0
31 39 43 0
31 41 43 0
39 41 43 0
3 32 40 42 44 0
31 4 40 42 44 0
39 4 32 42 44 0
41 4 32 40 44 0
43 4 32 40 42 0
5 33 39 0
5 33 45 0
5 33 47 0
5 39 45 0
5 39 47 0
5 45 47 0
33 39 45 0
33 39 47 0
33 45 47 0
39 45 47 0
5 34 40 46 48 0
33 6 40 46 48 0
39 6 34 46 48 0
45 6 34 40 48 0
47 6 34 40 46 0
7 35 41 0
7 35 45 0
7 35 49 0
7 41 45 0
7 41 49 0
7 45 49 0
35 41 45 0
35 41 49 0
35 45 49 0
41 45 49 0
7 36 42 46 50 0
35 8 42 46 50 0
41 8 36 46 50 0
45 8 36 42 50 0
49 8 36 42 46 0
9 37 43 0
9 37 47 0
9 37 49 0
9 43 47 0
9 43 49 0
9 47 49 0
37 43 47 0
37 43 49 0
37 47 49 0
43 47 49 0
9 38 44 48 50 0
37 10 44 48 50 0
43 10 38 48 50 0
47 10 38 44 50 0
49 10 38 44 48 0
11 31 51 0
11 31 53 0
11 31 55 0
11 51 53 0
11 51 55 0
11 53 55 0
31 51 53 0
31 51 55 0
31 53 55 0
51 53 55 0
11 32 52 54 56 0
31 12 52 54 56 0
51 12 32 54 56 0
53 12 32 52 56 0
55 12 32 52 54 0
13 33 51 0
13 33 57 0
13 33 59 0
13 51 57 0
13 51 59 0
13 57 59 0
33 51 57 0
33 51 59 0
33 57 59 0
51 57 59 0
13 34 52 58 60 0
33 14 52 58 60 0
51 14 34 58 60 0
57 14 34 52 60 0
59 14 34 52 58 0
15 35 53 0
15 35 57 0
15 35 61 0
15 53 57 0
15 53 61 0
15 57 61 0
35 53 57 0
35 53 61 0
35 57 61 0
53 57 61 0
15 36 54 58 62 0
35 16 54 58 62 0
53 16 36 58 62 0
57 16 36 54 62 0
61 16 36 54 58 0
17 37 55 0
17 37 59 0
17 37 61 0
17 55 59 0
17 55 61 0
17 59 61 0
37 55 59 0
37 55 61 0
37 59 61 0
55 59 61 0
17 38 56 60 62 0
37 18 56 60 62 0
55 18 38 60 62 0
59 18 38 56 62 0
61 18 38 56 60 0
19 39 51 0
19 39 63 0
19 39 65 0
19 51 63 0
19 51 65 0
19 63 65 0
39 51 63 0
39 51 65 0
39 63 65 0
51 63 65 0
19 40 52 64 66 0
39 20 52 64 66 0
51 20 40 64 66 0
63 20 40 52 66 0
65 20 40 52 64 0
21 41 53 0
21 41 63 0
21 41 67 0
21 53 63 0
21 53 67 0
21 63 67 0
41 53 63 0
41 53 67 0
41 63 67 0
53 63 67 0
21 42 54 64 68 0
41 22 54 64 68 0
53 22 42 64 68 0
63 22 42 54 68 0
67 22 42 54 64 0
23 43 55 0
23 43 65 0
23 43 67 0
23 55 65 0
23 55 67 0
23 65 67 0
43 55 65 0
43 55 67 0
43 65 67 0
55 65 67 0
23 44 56 66 68 0
43 24 56 66 68 0
55 24 44 66 68 0
65 24 44 56 68 0
67 24 44 56 66 0
25 45 57 0
25 45 63 0
25 45 69 0
25 57 63 0
25 57 69 0
25 63 69 0
45 57 63 0
45 57 69 0
45 63 69 0
57 63 69 0
25 46 58 64 70 0
45 26 58 64 70 0
57 26 46 64 70 0
63 26 46 58 70 0
69 26 46 58 64 0
27 47 59 0
27 47 65 0
27 47 69 0
27 59 65 0
27 59 69 0
27 65 69 0
47 59 65 0
47 59 69 0
47 65 69 0
59 65 69 0
27 48 60 66 70 0
47 28 60 66 70 0
59 28 48 66 70 0
65 28 48 60 70 0
69 28 48 60 66 0
29 49 61 0
29 49 67 0
29 49 69 0
29 61 67 0
29 61 69 0
29 67 69 0
49 61 67 0
49 61 69 0
49 67 69 0
61 67 69 0
29 50 62 68 70 0
49 30 62 68 70 0
61 30 50 68 70 0
67 30 50 62 70 0
69 30 50 62 68 0
1 72 0
3 82 0
5 92 0
7 102 0
9 112 0
11 122 0
13 132 0
15 142 0
17 152 0
19 162 0
21 172 0
23 182 0
25 192 0
27 202 0
29 212 0
71 82 0
73 84 0
75 86 0
77 88 0
79 90 0
81 92 0
83 94 0
85 96 0
87 98 0
89 100 0
91 102 0
93 104 0
95 106 0
97 108 0
99 110 0
101 112 0
103 114 0
105 116 0
107 118 0
109 120 0
111 122 0
113 124 0
115 126 0
117 128 0
119 130 0
121 132 0
123 134 0
125 136 0
127 138 0
129 140 0
131 142 0
133 144 0
135 146 0
137 148 0
139 150 0
141 152 0
143 154 0
145 156 0
147 158 0
149 160 0
151 162 0
153 164 0
155 166 0
157 168 0
159 170 0
161 172 0
163 174 0
165 176 0
167 178 0
169 180 0
171 182 0
173 184 0
175 186 0
177 188 0
179 190 0
181 192 0
183 194 0
185 196 0
187 198 0
189 200 0
191 202 0
193 204 0
195 206 0
197 208 0
199 210 0
201 212 0
203 214 0
205 216 0
207 218 0
209 220 0
3 71 84 0
3 73 86 0
3 75 88 0
3 77 90 0
5 81 94 0
5 83 96 0
5 85 98 0
5 87 100 0
7 91 104 0
7 93 106 0
7 95 108 0
7 97 110 0
9 101 114 0
9 103 116 0
9 105 118 0
9 107 120 0
11 111 124 0
11 113 126 0
11 115 128 0
11 117 130 0
13 121 134 0
13 123 136 0
13 125 138 0
13 127 140 0
15 131 144 0
15 133 146 0
15 135 148 0
15 137 150 0
17 141 154 0
17 143 156 0
17 145 158 0
17 147 160 0
19 151 164 0
19 153 166 0
19 155 168 0
19 157 170 0
21 161 174 0
21 163 176 0
21 165 178 0
21 167 180 0
23 171 184 0
23 173 186 0
23 175 188 0
23 177 190 0
25 181 194 0
25 183 196 0
25 185 198 0
25 187 200 0
27 191 204 0
27 193 206 0
27 195 208 0
27 197 210 0
29 201 214 0
29 203 216 0
29 205 218 0
29 207 220 0
3 79 0
5 89 0
7 99 0
9 109 0
11 119 0
13 129 0
15 139 0
17 149 0
19 159 0
21 169 0
23 179 0
25 189 0
27 199 0
29 209 0
222 2 0
221 1 0
224 4 0
223 3 0
226 6 0
225 5 0
228 8 0
227 7 0
230 10 0
229 9 0
232 12 0
231 11 0
234 14 0
233 13 0
236 16 0
235 15 0
238 18 0
237 17 0
240 20 0
239 19 0
242 22 0
241 21 0
244 24 0
243 23 0
246 26 0
245 25 0
248 28 0
247 27 0
250 30 0
249 29 0
221 252 0
223 272 0
225 292 0
227 312 0
229 332 0
231 352 0
233 372 0
235 392 0
237 412 0
239 432 0
241 452 0
243 472 0
245 492 0
247 512 0
249 532 0
251 272 0
253 274 0
255 276 0
257 278 0
259 280 0
261 282 0
263 284 0
265 286 0
267 288 0
269 290 0
271 292 0
273 294 0
275 296 0
277 298 0
279 300 0
281 302 0
283 304 0
285 306 0
287 308 0
289 310 0
291 312 0
293 314 0
295 316 0
297 318 0
299 320 0
301 322 0
303 324 0
305 326 0
307 328 0
309 330 0
311 332 0
313 334 0
315 336 0
317 338 0
319 340 0
321 342 0
323 344 0
325 346 0
327 348 0
329 350 0
331 352 0
333 354 0
335 356 0
337 358 0
339 360 0
341 362 0
343 364 0
345 366 0
347 368 0
349 370 0
351 372 0
353 374 0
355 376 0
357 378 0
359 380 0
361 382 0
363 384 0
365 386 0
367 388 0
369 390 0
371 392 0
373 394 0
375 396 0
377 398 0
379 400 0
381 402 0
383 404 0
385 406 0
387 408 0
389 410 0
391 412 0
393 414 0
395 416 0
397 418 0
399 420 0
401 422 0
403 424 0
405 426 0
407 428 0
409 430 0
411 432 0
413 434 0
415 436 0
417 438 0
419 440 0
421 442 0
423 444 0
425 446 0
427 448 0
429 450 0
431 452 0
433 454 0
435 456 0
437 458 0
439 460 0
441 462 0
443 464 0
445 466 0
447 468 0
449 470 0
451 472 0
453 474 0
455 476 0
457 478 0
459 480 0
461 482 0
463 484 0
465 486 0
467 488 0
469 490 0
471 492 0
473 494 0
475 496 0
477 498 0
479 500 0
481 502 0
483 504 0
485 506 0
487 508 0
489 510 0
491 512 0
493 514 0
495 516 0
497 518 0
499 520 0
501 522 0
503 524 0
505 526 0
507 528 0
509 530 0
511 532 0
513 534 0
515 536 0
517 538 0
519 540 0
521 542 0
523 544 0
525 546 0
527 548 0
529 550 0
223 251 274 0
223 253 276 0
223 255 278 0
223 257 280 0
223 259 282 0
223 261 284 0
223 263 286 0
223 265 288 0
223 267 290 0
225 271 294 0
225 273 296 0
225 275 298 0
225 277 300 0
225 279 302 0
225 281 304 0
225 283 306 0
225 285 308 0
225 287 310 0
227 291 314 0
227 293 316 0
227 295 318 0
227 297 320 0
227 299 322 0
227 301 324 0
227 303 326 0
227 305 328 0
227 307 330 0
229 311 334 0
229 313 336 0
229 315 338 0
229 317 340 0
229 319 342 0
229 321 344 0
229 323 346 0
229 325 348 0
229 327 350 0
231 331 354 0
231 333 356 0
231 335 358 0
231 337 360 0
231 339 362 0
231 341 364 0
231 343 366 0
231 345 368 0
231 347 370 0
233 351 374 0
233 353 376 0
233 355 378 0
233 357 380 0
233 359 382 0
233 361 384 0
233 363 386 0
233 365 388 0
233 367 390 0
235 371 394 0
235 373 396 0
235 375 398 0
235 377 400 0
235 379 402 0
235 381 404 0
235 383 406 0
235 385 408 0
235 387 410 0
237 391 414 0
237 393 416 0
237 395 418 0
237 397 420 0
237 399 422 0
237 401 424 0
237 403 426 0
237 405 428 0
237 407 430 0
239 411 434 0
239 413 436 0
239 415 438 0
239 417 440 0
239 419 442 0
239 421 444 0
239 423 446 0
239 425 448 0
239 427 450 0
241 431 454 0
241 433 456 0
241 435 458 0
241 437 460 0
241 439 462 0
241 441 464 0
241 443 466 0
241 445 468 0
241 447 470 0
243 451 474 0
243 453 476 0
243 455 478 0
243 457 480 0
243 459 482 0
243 461 484 0
243 463 486 0
243 465 488 0
243 467 490 0
245 471 494 0
245 473 496 0
245 475 498 0
245 477 500 0
245 479 502 0
245 481 504 0
245 483 506 0
245 485 508 0
245 487 510 0
247 491 514 0
247 493 516 0
247 495 518 0
247 497 520 0
247 499 522 0
247 501 524 0
247 503 526 0
247 505 528 0
247 507 530 0
249 511 534 0
249 513 536 0
249 515 538 0
249 517 540 0
249 519 542 0
249 521 544 0
249 523 546 0
249 525 548 0
249 527 550 0
223 269 0
225 289 0
227 309 0
229 329 0
231 349 0
233 369 0
235 389 0
237 409 0
239 429 0
241 449 0
243 469 0
245 489 0
247 509 0
249 529 0
1 552 0
3 562 0
5 572 0
7 582 0
9 592 0
31 602 0
33 612 0
35 622 0
37 632 0
39 642 0
41 652 0
43 662 0
45 672 0
47 682 0
49 692 0
551 562 0
553 564 0
555 566 0
557 568 0
559 570 0
561 572 0
563 574 0
565 576 0
567 578 0
569 580 0
571 582 0
573 584 0
575 586 0
577 588 0
579 590 0
581 592 0
583 594 0
585 596 0
587 598 0
589 600 0
591 602 0
593 604 0
595 606 0
597 608 0
599 610 0
601 612 0
603 614 0
605 616 0
607 618 0
609 620 0
611 622 0
613 624 0
615 626 0
617 628 0
619 630 0
621 632 0
623 634 0
625 636 0
627 638 0
629 640 0
631 642 0
633 644 0
635 646 0
637 648 0
639 650 0
641 652 0
643 654 0
645 656 0
647 658 0
649 660 0
651 662 0
653 664 0
655 666 0
657 668 0
659 670 0
661 672 0
663 674 0
665 676 0
667 678 0
669 680 0
671 682 0
673 684 0
675 686 0
677 688 0
679 690 0
681 692 0
683 694 0
685 696 0
687 698 0
689 700 0
3 551 564 0
3 553 566 0
3 555 568 0
3 557 570 0
5 561 574 0
5 563 576 0
5 565 578 0
5 567 580 0
7 571 584 0
7 573 586 0
7 575 588 0
7 577 590 0
9 581 594 0
9 583 596 0
9 585 598 0
9 587 600 0
31 591 604 0
31 593 606 0
31 595 608 0
31 597 610 0
33 601 614 0
33 603 616 0
33 605 618 0
33 607 620 0
35 611 624 0
35 613 626 0
35 615 628 0
35 617 630 0
37 621 634 0
37 623 636 0
37 625 638 0
37 627 640 0
39 631 644 0
39 633 646 0
39 635 648 0
39 637 650 0
41 641 654 0
41 643 656 0
41 645 658 0
41 647 660 0
43 651 664 0
43 653 666 0
43 655 668 0
43 657 670 0
45 661 674 0
45 663 676 0
45 665 678 0
45 667 680 0
47 671 684 0
47 673 686 0
47 675 688 0
47 677 690 0
49 681 694 0
49 683 696 0
49 685 698 0
49 687 700 0
3 559 0
5 569 0
7 579 0
9 589 0
31 599 0
33 609 0
35 619 0
37 629 0
39 639 0
41 649 0
43 659 0
45 669 0
47 679 0
49 689 0
702 2 0
701 1 0
704 4 0
703 3 0
706 6 0
705 5 0
708 8 0
707 7 0
710 10 0
709 9 0
712 32 0
711 31 0
714 34 0
713 33 0
716 36 0
715 35 0
718 38 0
717 37 0
720 40 0
719 39 0
722 42 0
721 41 0
724 44 0
723 43 0
726 46 0
725 45 0
728 48 0
727 47 0
730 50 0
729 49 0
701 732 0
703 752 0
705 772 0
707 792 0
709 812 0
711 832 0
713 852 0
715 872 0
717 892 0
719 912 0
721 932 0
723 952 0
725 972 0
727 992 0
729 1012 0
731 752 0
733 754 0
735 756 0
737 758 0
739 760 0
741 762 0
743 764 0
745 766 0
747 768 0
749 770 0
751 772 0
753 774 0
755 776 0
757 778 0
759 780 0
761 782 0
763 784 0
765 786 0
767 788 0
769 790 0
771 792 0
773 794 0
775 796 0
777 798 0
779 800 0
781 802 0
783 804 0
785 806 0
787 808 0
789 810 0
791 812 0
793 814 0
795 816 0
797 818 0
799 820 0
801 822 0
803 824 0
805 826 0
807 828 0
809 830 0
811 832 0
813 834 0
815 836 0
817 838 0
819 840 0
821 842 0
823 844 0
825 846 0
827 848 0
829 850 0
831 852 0
833 854 0
835 856 0
837 858 0
839 860 0
841 862 0
843 864 0
845 866 0
847 868 0
849 870 0
851 872 0
853 874 0
855 876 0
857 878 0
859 880 0
861 882 0
863 884 0
865 886 0
867 888 0
869 890 0
871 892 0
873 894 0
875 896 0
877 898 0
879 900 0
881 902 0
883 904 0
885 906 0
887 908 0
889 910 0
891 912 0
893 914 0
895 916 0
897 918 0
899 920 0
901 922 0
903 924 0
905 926 0
907 928 0
909 930 0
911 932 0
913 934 0
915 936 0
917 938 0
919 940 0
921 942 0
923 944 0
925 946 0
927 948 0
929 950 0
931 952 0
933 954 0
935 956 0
937 958 0
939 960 0
941 962 0
943 964 0
945 966 0
947 968 0
949 970 0
951 972 0
953 974 0
955 976 0
957 978 0
959 980 0
961 982 0
963 984 0
965 986 0
967 988 0
969 990 0
971 992 0
973 994 0
975 996 0
977 998 0
979 1000 0
981 1002 0
983 1004 0
985 1006 0
987 1008 0
989 1010 0
991 1012 0
993 1014 0
995 1016 0
997 1018 0
999 1020 0
1001 1022 0
1003 1024 0
1005 1026 0
1007 1028 0
1009 1030 0
703 731 754 0
703 733 756 0
703 735 758 0
703 737 760 0
703 739 762 0
703 741 764 0
703 743 766 0
703 745 768 0
703 747 770 0
705 751 774 0
705 753 776 0
705 755 778 0
705 757 780 0
705 759 782 0
705 761 784 0
705 763 786 0
705 765 788 0
705 767 790 0
707 771 794 0
707 773 796 0
707 775 798 0
707 777 800 0
707 779 802 0
707 781 804 0
707 783 806 0
707 785 808 0
707 787 810 0
709 791 814 0
709 793 816 0
709 795 818 0
709 797 820 0
709 799 822 0
709 801 824 0
709 803 826 0
709 805 828 0
709 807 830 0
711 811 834 0
711 813 836 0
711 815 838 0
711 817 840 0
711 819 842 0
711 821 844 0
711 823 846 0
711 825 848 0
711 827 850 0
713 831 854 0
713 833 856 0
713 835 858 0
713 837 860 0
713 839 862 0
713 841 864 0
713 843 866 0
713 845 868 0
713 847 870 0
715 851 874 0
715 853 876 0
715 855 878 0
715 857 880 0
715 859 882 0
715 861 884 0
715 863 886 0
715 865 888 0
715 867 890 0
717 871 894 0
717 873 896 0
717 875 898 0
717 877 900 0
717 879 902 0
717 881 904 0
717 883 906 0
717 885 908 0
717 887 910 0
719 891 914 0
719 893 916 0
719 895 918 0
719 897 920 0
719 899 922 0
719 901 924 0
719 903 926 0
719 905 928 0
719 907 930 0
721 911 934 0
721 913 936 0
721 915 938 0
721 917 940 0
721 919 942 0
721 921 944 0
721 923 946 0
721 925 948 0
721 927 950 0
723 931 954 0
723 933 956 0
723 935 958 0
723 937 960 0
723 939 962 0
723 941 964 0
723 943 966 0
723 945 968 0
723 947 970 0
725 951 974 0
725 953 976 0
725 955 978 0
725 957 980 0
725 959 982 0
725 961 984 0
725 963 986 0
725 965 988 0
725 967 990 0
727 971 994 0
727 973 996 0
727 975 998 0
727 977 1000 0
727 979 1002 0
727 981 1004 0
727 983 1006 0
727 985 1008 0
727 987 1010 0
729 991 1014 0
729 993 1016 0
729 995 1018 0
729 997 1020 0
729 999 1022 0
729 1001 1024 0
729 1003 1026 0
729 1005 1028 0
729 1007 1030 0
703 749 0
705 769 0
707 789 0
709 809 0
711 829 0
713 849 0
715 869 0
717 889 0
719 909 0
721 929 0
723 949 0
725 969 0
727 989 0
729 1009 0
1 1032 0
11 1040 0
13 1048 0
15 1056 0
17 1064 0
31 1072 0
33 1080 0
35 1088 0
37 1096 0
51 1104 0
53 1112 0
55 1120 0
57 1128 0
59 1136 0
61 1144 0
1031 1040 0
1033 1042 0
1035 1044 0
1037 1046 0
1039 1048 0
1041 1050 0
1043 1052 0
1045 1054 0
1047 1056 0
1049 1058 0
1051 1060 0
1053 1062 0
1055 1064 0
1057 1066 0
1059 1068 0
1061 1070 0
1063 1072 0
1065 1074 0
1067 1076 0
1069 1078 0
1071 1080 0
1073 1082 0
1075 1084 0
1077 1086 0
1079 1088 0
1081 1090 0
1083 1092 0
1085 1094 0
1087 1096 0
1089 1098 0
1091 1100 0
1093 1102 0
1095 1104 0
1097 1106 0
1099 1108 0
1101 1110 0
1103 1112 0
1105 1114 0
1107 1116 0
1109 1118 0
1111 1120 0
1113 1122 0
1115 1124 0
1117 1126 0
1119 1128 0
1121 1130 0
1123 1132 0
1125 1134 0
1127 1136 0
1129 1138 0
1131 1140 0
1133 1142 0
1135 1144 0
1137 1146 0
1139 1148 0
1141 1150 0
11 1031 1042 0
11 1033 1044 0
11 1035 1046 0
13 1039 1050 0
13 1041 1052 0
13 1043 1054 0
15 1047 1058 0
15 1049 1060 0
15 1051 1062 0
17 1055 1066 0
17 1057 1068 0
17 1059 1070 0
31 1063 1074 0
31 1065 1076 0
31 1067 1078 0
33 1071 1082 0
33 1073 1084 0
33 1075 1086 0
35 1079 1090 0
35 1081 1092 0
35 1083 1094 0
37 1087 1098 0
37 1089 1100 0
37 1091 1102 0
51 1095 1106 0
51 1097 1108 0
51 1099 1110 0
53 1103 1114 0
53 1105 1116 0
53 1107 1118 0
55 1111 1122 0
55 1113 1124 0
55 1115 1126 0
57 1119 1130 0
57 1121 1132 0
57 1123 1134 0
59 1127 1138 0
59 1129 1140 0
59 1131 1142 0
61 1135 1146 0
61 1137 1148 0
61 1139 1150 0
11 1037 0
13 1045 0
15 1053 0
17 1061 0
31 1069 0
33 1077 0
35 1085 0
37 1093 0
51 1101 0
53 1109 0
55 1117 0
57 1125 0
59 1133 0
61 1141 0
1152 2 0
1151 1 0
1154 12 0
1153 11 0
1156 14 0
1155 13 0
1158 16 0
1157 15 0
1160 18 0
1159 17 0
1162 32 0
1161 31 0
1164 34 0
1163 33 0
1166 36 0
1165 35 0
1168 38 0
1167 37 0
1170 52 0
1169 51 0
1172 54 0
1171 53 0
1174 56 0
1173 55 0
1176 58 0
1175 57 0
1178 60 0
1177 59 0
1180 62 0
1179 61 0
1151 1182 0
1153 1204 0
1155 1226 0
1157 1248 0
1159 1270 0
1161 1292 0
1163 1314 0
1165 1336 0
1167 1358 0
1169 1380 0
1171 1402 0
1173 1424 0
1175 1446 0
1177 1468 0
1179 1490 0
1181 1204 0
1183 1206 0
1185 1208 0
1187 1210 0
1189 1212 0
1191 1214 0
1193 1216 0
1195 1218 0
1197 1220 0
1199 1222 0
1201 1224 0
1203 1226 0
1205 1228 0
1207 1230 0
1209 1232 0
1211 1234 0
1213 1236 0
1215 1238 0
1217 1240 0
1219 1242 0
1221 1244 0
1223 1246 0
1225 1248 0
1227 1250 0
1229 1252 0
1231 1254 0
1233 1256 0
1235 1258 0
1237 1260 0
1239 1262 0
1241 1264 0
1243 1266 0
1245 1268 0
1247 1270 0
1249 1272 0
1251 1274 0
1253 1276 0
1255 1278 0
1257 1280 0
1259 1282 0
1261 1284 0
1263 1286 0
1265 1288 0
1267 1290 0
1269 1292 0
1271 1294 0
1273 1296 0
1275 1298 0
1277 1300 0
1279 1302 0
1281 1304 0
1283 1306 0
1285 1308 0
1287 1310 0
1289 1312 0
1291 1314 0
1293 1316 0
1295 1318 0
1297 1320 0
1299 1322 0
1301 1324 0
1303 1326 0
1305 1328 0
1307 1330 0
1309 1332 0
1311 1334 0
1313 1336 0
1315 1338 0
1317 1340 0
1319 1342 0
1321 1344 0
1323 1346 0
1325 1348 0
1327 1350 0
1329 1352 0
1331 1354 0
1333 1356 0
1335 1358 0
1337 1360 0
1339 1362 0
1341 1364 0
1343 1366 0
1345 1368 0
1347 1370 0
1349 1372 0
1351 1374 0
1353 1376 0
1355 1378 0
1357 1380 0
1359 1382 0
1361 1384 0
1363 1386 0
1365 1388 0
1367 1390 0
1369 1392 0
1371 1394 0
1373 1396 0
1375 1398 0
1377 1400 0
1379 1402 0
1381 1404 0
1383 1406 0
1385 1408 0
1387 1410 0
1389 1412 0
1391 1414 0
1393 1416 0
1395 1418 0
1397 1420 0
1399 1422 0
1401 1424 0
1403 1426 0
1405 1428 0
1407 1430 0
1409 1432 0
1411 1434 0
1413 1436 0
1415 1438 0
1417 1440 0
1419 1442 0
1421 1444 0
1423 1446 0
1425 1448 0
1427 1450 0
1429 1452 0
1431 1454 0
1433 1456 0
1435 1458 0
1437 1460 0
1439 1462 0
1441 1464 0
1443 1466 0
1445 1468 0
1447 1470 0
1449 1472 0
1451 1474 0
1453 1476 0
1455 1478 0
1457 1480 0
1459 1482 0
1461 1484 0
1463 1486 0
1465 1488 0
1467 1490 0
1469 1492 0
1471 1494 0
1473 1496 0
1475 1498 0
1477 1500 0
1479 1502 0
1481 1504 0
1483 1506 0
1485 1508 0
1487 1510 0
1153 1181 1206 0
1153 1183 1208 0
1153 1185 1210 0
1153 1187 1212 0
1153 1189 1214 0
1153 1191 1216 0
1153 1193 1218 0
1153 1195 1220 0
1153 1197 1222 0
1153 1199 1224 0
1155 1203 1228 0
1155 1205 1230 0
1155 1207 1232 0
1155 1209 1234 0
1155 1211 1236 0
1155 1213 1238 0
1155 1215 1240 0
1155 1217 1242 0
1155 1219 1244 0
1155 1221 1246 0
1157 1225 1250 0
1157 1227 1252 0
1157 1229 1254 0
1157 1231 1256 0
1157 1233 1258 0
1157 1235 1260 0
1157 1237 1262 0
1157 1239 1264 0
1157 1241 1266 0
1157 1243 1268 0
1159 1247 1272 0
1159 1249 1274 0
1159 1251 1276 0
1159 1253 1278 0
1159 1255 1280 0
1159 1257 1282 0
1159 1259 1284 0
1159 1261 1286 0
1159 1263 1288 0
1159 1265 1290 0
1161 1269 1294 0
1161 1271 1296 0
1161 1273 1298 0
1161 1275 1300 0
1161 1277 1302 0
1161 1279 1304 0
1161 1281 1306 0
1161 1283 1308 0
1161 1285 1310 0
1161 1287 1312 0
1163 1291 1316 0
1163 1293 1318 0
1163 1295 1320 0
1163 1297 1322 0
1163 1299 1324 0
1163 1301 1326 0
1163 1303 1328 0
1163 1305 1330 0
1163 1307 1332 0
1163 1309 1334 0
1165 1313 1338 0
1165 1315 1340 0
1165 1317 1342 0
1165 1319 1344 0
1165 1321 1346 0
1165 1323 1348 0
1165 1325 1350 0
1165 1327 1352 0
1165 1329 1354 0
1165 1331 1356 0
1167 1335 1360 0
1167 1337 1362 0
1167 1339 1364 0
1167 1341 1366 0
1167 1343 1368 0
1167 1345 1370 0
1167 1347 1372 0
1167 1349 1374 0
1167 1351 1376 0
1167 1353 1378 0
1169 1357 1382 0
1169 1359 1384 0
1169 1361 1386 0
1169 1363 1388 0
1169 1365 1390 0
1169 1367 1392 0
1169 1369 1394 0
1169 1371 1396 0
1169 1373 1398 0
1169 1375 1400 0
1171 1379 1404 0
1171 1381 1406 0
1171 1383 1408 0
1171 1385 1410 0
1171 1387 1412 0
1171 1389 1414 0
1171 1391 1416 0
1171 1393 1418 0
1171 1395 1420 0
1171 1397 1422 0
1173 1401 1426 0
1173 1403 1428 0
1173 1405 1430 0
1173 1407 1432 0
1173 1409 1434 0
1173 1411 1436 0
1173 1413 1438 0
1173 1415 1440 0
1173 1417 1442 0
1173 1419 1444 0
1175 1423 1448 0
1175 1425 1450 0
1175 1427 1452 0
1175 1429 1454 0
1175 1431 1456 0
1175 1433 1458 0
1175 1435 1460 0
1175 1437 1462 0
1175 1439 1464 0
1175 1441 1466 0
1177 1445 1470 0
1177 1447 1472 0
1177 1449 1474 0
1177 1451 1476 0
1177 1453 1478 0
1177 1455 1480 0
1177 1457 1482 0
1177 1459 1484 0
1177 1461 1486 0
1177 1463 1488 0
1179 1467 1492 0
1179 1469 1494 0
1179 1471 1496 0
1179 1473 1498 0
1179 1475 1500 0
1179 1477 1502 0
1179 1479 1504 0
1179 1481 1506 0
1179 1483 1508 0
1179 1485 1510 0
1153 1201 0
1155 1223 0
1157 1245 0
1159 1267 0
1161 1289 0
1163 1311 0
1165 1333 0
1167 1355 0
1169 1377 0
1171 1399 0
1173 1421 0
1175 1443 0
1177 1465 0
1179 1487 0
3 1512 0
11 1520 0
19 1528 0
21 1536 0
23 1544 0
31 1552 0
39 1560 0
41 1568 0
43 1576 0
51 1584 0
53 1592 0
55 1600 0
63 1608 0
65 1616 0
67 1624 0
1511 1520 0
1513 1522 0
1515 1524 0
1517 1526 0
1519 1528 0
1521 1530 0
1523 1532 0
1525 1534 0
1527 1536 0
1529 1538 0
1531 1540 0
1533 1542 0
1535 1544 0
1537 1546 0
1539 1548 0
1541 1550 0
1543 1552 0
1545 1554 0
1547 1556 0
1549 1558 0
1551 1560 0
1553 1562 0
1555 1564 0
1557 1566 0
1559 1568 0
1561 1570 0
1563 1572 0
1565 1574 0
1567 1576 0
1569 1578 0
1571 1580 0
1573 1582 0
1575 1584 0
1577 1586 0
1579 1588 0
1581 1590 0
1583 1592 0
1585 1594 0
1587 1596 0
1589 1598 0
1591 1600 0
1593 1602 0
1595 1604 0
1597 1606 0
1599 1608 0
1601 1610 0
1603 1612 0
1605 1614 0
1607 1616 0
1609 1618 0
1611 1620 0
1613 1622 0
1615 1624 0
1617 1626 0
1619 1628 0
1621 1630 0
11 1511 1522 0
11 1513 1524 0
11 1515 1526 0
19 1519 1530 0
19 1521 1532 0
19 1523 1534 0
21 1527 1538 0
21 1529 1540 0
21 1531 1542 0
23 1535 1546 0
23 1537 1548 0
23 1539 1550 0
31 1543 1554 0
31 1545 1556 0
31 1547 1558 0
39 1551 1562 0
39 1553 1564 0
39 1555 1566 0
41 1559 1570 0
41 1561 1572 0
41 1563 1574 0
43 1567 1578 0
43 1569 1580 0
43 1571 1582 0
51 1575 1586 0
51 1577 1588 0
51 1579 1590 0
53 1583 1594 0
53 1585 1596 0
53 1587 1598 0
55 1591 1602 0
55 1593 1604 0
55 1595 1606 0
63 1599 1610 0
63 1601 1612 0
63 1603 1614 0
65 1607 1618 0
65 1609 1620 0
65 1611 1622 0
67 1615 1626 0
67 1617 1628 0
67 1619 1630 0
11 1517 0
19 1525 0
21 1533 0
23 1541 0
31 1549 0
39 1557 0
41 1565 0
43 1573 0
51 1581 0
53 1589 0
55 1597 0
63 1605 0
65 1613 0
67 1621 0
1632 4 0
1631 3 0
1634 12 0
1633 11 0
1636 20 0
1635 19 0
1638 22 0
1637 21 0
1640 24 0
1639 23 0
1642 32 0
1641 31 0
1644 40 0
1643 39 0
1646 42 0
1645 41 0
1648 44 0
1647 43 0
1650 52 0
1649 51 0
1652 54 0
1651 53 0
1654 56 0
1653 55 0
1656 64 0
1655 63 0
1658 66 0
1657 65 0
1660 68 0
1659 67 0
1631 1662 0
1633 1684 0
1635 1706 0
1637 1728 0
1639 1750 0
1641 1772 0
1643 1794 0
1645 1816 0
1647 1838 0
1649 1860 0
1651 1882 0
1653 1904 0
1655 1926 0
1657 1948 0
1659 1970 0
1661 1684 0
1663 1686 0
1665 1688 0
1667 1690 0
1669 1692 0
1671 1694 0
1673 1696 0
1675 1698 0
1677 1700 0
1679 1702 0
1681 1704 0
1683 1706 0
1685 1708 0
1687 1710 0
1689 1712 0
1691 1714 0
1693 1716 0
1695 1718 0
1697 1720 0
1699 1722 0
1701 1724 0
1703 1726 0
1705 1728 0
1707 1730 0
1709 1732 0
1711 1734 0
1713 1736 0
1715 1738 0
1717 1740 0
1719 1742 0
1721 1744 0
1723 1746 0
1725 1748 0
1727 1750 0
1729 1752 0
1731 1754 0
1733 1756 0
1735 1758 0
1737 1760 0
1739 1762 0
1741 1764 0
1743 1766 0
1745 1768 0
1747 1770 0
1749 1772 0
1751 1774 0
1753 1776 0
1755 1778 0
1757 1780 0
1759 1782 0
1761 1784 0
1763 1786 0
1765 1788 0
1767 1790 0
1769 1792 0
1771 1794 0
1773 1796 0
1775 1798 0
1777 1800 0
1779 1802 0
1781 1804 0
1783 1806 0
1785 1808 0
1787 1810 0
1789 1812 0
1791 1814 0
1793 1816 0
1795 1818 0
1797 1820 0
1799 1822 0
1801 1824 0
1803 1826 0
1805 1828 0
1807 1830 0
1809 1832 0
1811 1834 0
1813 1836 0
1815 1838 0
1817 1840 0
1819 1842 0
1821 1844 0
1823 1846 0
1825 1848 0
1827 1850 0
1829 1852 0
1831 1854 0
1833 1856 0
1835 1858 0
1837 1860 0
1839 1862 0
1841 1864 0
1843 1866 0
1845 1868 0
1847 1870 0
1849 1872 0
1851 1874 0
1853 1876 0
1855 1878 0
1857 1880 0
1859 1882 0
1861 1884 0
1863 1886 0
1865 1888 0
1867 1890 0
1869 1892 0
1871 1894 0
1873 1896 0
1875 1898 0
1877 1900 0
1879 1902 0
1881 1904 0
1883 1906 0
1885 1908 0
1887 1910 0
1889 1912 0
1891 1914 0
1893 1916 0
1895 1918 0
1897 1920 0
1899 1922 0
1901 1924 0
1903 1926 0
1905 1928 0
1907 1930 0
1909 1932 0
1911 1934 0
1913 1936 0
1915 1938 0
1917 1940 0
1919 1942 0
1921 1944 0
1923 1946 0
1925 1948 0
1927 1950 0
1929 1952 0
1931 1954 0
1933 1956 0
1935 1958 0
1937 1960 0
1939 1962 0
1941 1964 0
1943 1966 0
1945 1968 0
1947 1970 0
1949 1972 0
1951 1974 0
1953 1976 0
1955 1978 0
1957 1980 0
1959 1982 0
1961 1984 0
1963 1986 0
1965 1988 0
1967 1990 0
1633 1661 1686 0
1633 1663 1688 0
1633 1665 1690 0
1633 1667 1692 0
1633 1669 1694 0
1633 1671 1696 0
1633 1673 1698 0
1633 1675 1700 0
1633 1677 1702 0
1633 1679 1704 0
1635 1683 1708 0
1635 1685 1710 0
1635 1687 1712 0
1635 1689 1714 0
1635 1691 1716 0
1635 1693 1718 0
1635 1695 1720 0
1635 1697 1722 0
1635 1699 1724 0
1635 1701 1726 0
1637 1705 1730 0
1637 1707 1732 0
1637 1709 1734 0
1637 1711 1736 0
1637 1713 1738 0
1637 1715 1740 0
1637 1717 1742 0
1637 1719 1744 0
1637 1721 1746 0
1637 1723 1748 0
1639 1727 1752 0
1639 1729 1754 0
1639 1731 1756 0
1639 1733 1758 0
1639 1735 1760 0
1639 1737 1762 0
1639 1739 1764 0
1639 1741 1766 0
1639 1743 1768 0
1639 1745 1770 0
1641 1749 1774 0
1641 1751 1776 0
1641 1753 1778 0
1641 1755 1780 0
1641 1757 1782 0
1641 1759 1784 0
1641 1761 1786 0
1641 1763 1788 0
1641 1765 1790 0
1641 1767 1792 0
1643 1771 1796 0
1643 1773 1798 0
1643 1775 1800 0
1643 1777 1802 0
1643 1779 1804 0
1643 1781 1806 0
1643 1783 1808 0
1643 1785 1810 0
1643 1787 1812 0
1643 1789 1814 0
1645 1793 1818 0
1645 1795 1820 0
1645 1797 1822 0
1645 1799 1824 0
1645 1801 1826 0
1645 1803 1828 0
1645 1805 1830 0
1645 1807 1832 0
1645 1809 1834 0
1645 1811 1836 0
1647 1815 1840 0
1647 1817 1842 0
1647 1819 1844 0
1647 1821 1846 0
1647 1823 1848 0
1647 1825 1850 0
1647 1827 1852 0
1647 1829 1854 0
1647 1831 1856 0
1647 1833 1858 0
1649 1837 1862 0
1649 1839 1864 0
1649 1841 1866 0
1649 1843 1868 0
1649 1845 1870 0
1649 1847 1872 0
1649 1849 1874 0
1649 1851 1876 0
1649 1853 1878 0
1649 1855 1880 0
1651 1859 1884 0
1651 1861 1886 0
1651 1863 1888 0
1651 1865 1890 0
1651 1867 1892 0
1651 1869 1894 0
1651 1871 1896 0
1651 1873 1898 0
1651 1875 1900 0
1651 1877 1902 0
1653 1881 1906 0
1653 1883 1908 0
1653 1885 1910 0
1653 1887 1912 0
1653 1889 1914 0
1653 1891 1916 0
1653 1893 1918 0
1653 1895 1920 0
1653 1897 1922 0
1653 1899 1924 0
1655 1903 1928 0
1655 1905 1930 0
1655 1907 1932 0
1655 1909 1934 0
1655 1911 1936 0
1655 1913 1938 0
1655 1915 1940 0
1655 1917 1942 0
1655 1919 1944 0
1655 1921 1946 0
1657 1925 1950 0
1657 1927 1952 0
1657 1929 1954 0
1657 1931 1956 0
1657 1933 1958 0
1657 1935 1960 0
1657 1937 1962 0
1657 1939 1964 0
1657 1941 1966 0
1657 1943 1968 0
1659 1947 1972 0
1659 1949 1974 0
1659 1951 1976 0
1659 1953 1978 0
1659 1955 1980 0
1659 1957 1982 0
1659 1959 1984 0
1659 1961 1986 0
1659 1963 1988 0
1659 1965 1990 0
1633 1681 0
1635 1703 0
1637 1725 0
1639 1747 0
1641 1769 0
1643 1791 0
1645 1813 0
1647 1835 0
1649 1857 0
1651 1879 0
1653 1901 0
1655 1923 0
1657 1945 0
1659 1967 0
5 1992 0
13 2000 0
19 2008 0
25 2016 0
27 2024 0
33 2032 0
39 2040 0
45 2048 0
47 2056 0
51 2064 0
57 2072 0
59 2080 0
63 2088 0
65 2096 0
69 2104 0
1991 2000 0
1993 2002 0
1995 2004 0
1997 2006 0
1999 2008 0
2001 2010 0
2003 2012 0
2005 2014 0
2007 2016 0
2009 2018 0
2011 2020 0
2013 2022 0
2015 2024 0
2017 2026 0
2019 2028 0
2021 2030 0
2023 2032 0
2025 2034 0
2027 2036 0
2029 2038 0
2031 2040 0
2033 2042 0
2035 2044 0
2037 2046 0
2039 2048 0
2041 2050 0
2043 2052 0
2045 2054 0
2047 2056 0
2049 2058 0
2051 2060 0
2053 2062 0
2055 2064 0
2057 2066 0
2059 2068 0
2061 2070 0
2063 2072 0
2065 2074 0
2067 2076 0
2069 2078 0
2071 2080 0
2073 2082 0
2075 2084 0
2077 2086 0
2079 2088 0
2081 2090 0
2083 2092 0
2085 2094 0
2087 2096 0
2089 2098 0
2091 2100 0
2093 2102 0
2095 2104 0
2097 2106 0
2099 2108 0
2101 2110 0
13 1991 2002 0
13 1993 2004 0
13 1995 2006 0
19 1999 2010 0
19 2001 2012 0
19 2003 2014 0
25 2007 2018 0
25 2009 2020 0
25 2011 2022 0
27 2015 2026 0
27 2017 2028 0
27 2019 2030 0
33 2023 2034 0
33 2025 2036 0
33 2027 2038 0
39 2031 2042 0
39 2033 2044 0
39 2035 2046 0
45 2039 2050 0
45 2041 2052 0
45 2043 2054 0
47 2047 2058 0
47 2049 2060 0
47 2051 2062 0
51 2055 2066 0
51 2057 2068 0
51 2059 2070 0
57 2063 2074 0
57 2065 2076 0
57 2067 2078 0
59 2071 2082 0
59 2073 2084 0
59 2075 2086 0
63 2079 2090 0
63 2081 2092 0
63 2083 2094 0
65 2087 2098 0
65 2089 2100 0
65 2091 2102 0
69 2095 2106 0
69 2097 2108 0
69 2099 2110 0
13 1997 0
19 2005 0
25 2013 0
27 2021 0
33 2029 0
39 2037 0
45 2045 0
47 2053 0
51 2061 0
57 2069 0
59 2077 0
63 2085 0
65 2093 0
69 2101 0
2112 6 0
2111 5 0
2114 14 0
2113 13 0
2116 20 0
2115 19 0
2118 26 0
2117 25 0
2120 28 0
2119 27 0
2122 34 0
2121 33 0
2124 40 0
2123 39 0
2126 46 0
2125 45 0
2128 48 0
2127 47 0
2130 52 0
2129 51 0
2132 58 0
2131 57 0
2134 60 0
2133 59 0
2136 64 0
2135 63 0
2138 66 0
2137 65 0
2140 70 0
2139 69 0
2111 2142 0
2113 2164 0
2115 2186 0
2117 2208 0
2119 2230 0
2121 2252 0
2123 2274 0
2125 2296 0
2127 2318 0
2129 2340 0
2131 2362 0
2133 2384 0
2135 2406 0
2137 2428 0
2139 2450 0
2141 2164 0
2143 2166 0
2145 2168 0
2147 2170 0
2149 2172 0
2151 2174 0
2153 2176 0
2155 2178 0
2157 2180 0
2159 2182 0
2161 2184 0
2163 2186 0
2165 2188 0
2167 2190 0
2169 2192 0
2171 2194 0
2173 2196 0
2175 2198 0
2177 2200 0
2179 2202 0
2181 2204 0
2183 2206 0
2185 2208 0
2187 2210 0
2189 2212 0
2191 2214 0
2193 2216 0
2195 2218 0
2197 2220 0
2199 2222 0
2201 2224 0
2203 2226 0
2205 2228 0
2207 2230 0
2209 2232 0
2211 2234 0
2213 2236 0
2215 2238 0
2217 2240 0
2219 2242 0
2221 2244 0
2223 2246 0
2225 2248 0
2227 2250 0
2229 2252 0
2231 2254 0
2233 2256 0
2235 2258 0
2237 2260 0
2239 2262 0
2241 2264 0
2243 2266 0
2245 2268 0
2247 2270 0
2249 2272 0
2251 2274 0
2253 2276 0
2255 2278 0
2257 2280 0
2259 2282 0
2261 2284 0
2263 2286 0
2265 2288 0
2267 2290 0
2269 2292 0
2271 2294 0
2273 2296 0
2275 2298 0
2277 2300 0
2279 2302 0
2281 2304 0
2283 2306 0
2285 2308 0
2287 2310 0
2289 2312 0
2291 2314 0
2293 2316 0
2295 2318 0
2297 2320 0
2299 2322 0
2301 2324 0
2303 2326 0
2305 2328 0
2307 2330 0
2309 2332 0
2311 2334 0
2313 2336 0
2315 2338 0
2317 2340 0
2319 2342 0
2321 2344 0
2323 2346 0
2325 2348 0
2327 2350 0
2329 2352 0
2331 2354 0
2333 2356 0
2335 2358 0
2337 2360 0
2339 2362 0
2341 2364 0
2343 2366 0
2345 2368 0
2347 2370 0
2349 2372 0
2351 2374 0
2353 2376 0
2355 2378 0
2357 2380 0
2359 2382 0
2361 2384 0
2363 2386 0
2365 2388 0
2367 2390 0
2369 2392 0
2371 2394 0
2373 2396 0
2375 2398 0
2377 2400 0
2379 2402 0
2381 2404 0
2383 2406 0
2385 2408 0
2387 2410 0
2389 2412 0
2391 2414 0
2393 2416 0
2395 2418 0
2397 2420 0
2399 2422 0
2401 2424 0
2403 2426 0
2405 2428 0
2407 2430 0
2409 2432 0
2411 2434 0
2413 2436 0
2415 2438 0
2417 2440 0
2419 2442 0
2421 2444 0
2423 2446 0
2425 2448 0
2427 2450 0
2429 2452 0
2431 2454 0
2433 2456 0
2435 2458 0
2437 2460 0
2439 2462 0
2441 2464 0
2443 2466 0
2445 2468 0
2447 2470 0
2113 2141 2166 0
2113 2143 2168 0
2113 2145 2170 0
2113 2147 2172 0
2113 2149 2174 0
2113 2151 2176 0
2113 2153 2178 0
2113 2155 2180 0
2113 2157 2182 0
2113 2159 2184 0
2115 2163 2188 0
2115 2165 2190 0
2115 2167 2192 0
2115 2169 2194 0
2115 2171 2196 0
2115 2173 2198 0
2115 2175 2200 0
2115 2177 2202 0
2115 2179 2204 0
2115 2181 2206 0
2117 2185 2210 0
2117 2187 2212 0
2117 2189 2214 0
2117 2191 2216 0
2117 2193 2218 0
2117 2195 2220 0
2117 2197 2222 0
2117 2199 2224 0
2117 2201 2226 0
2117 2203 2228 0
2119 2207 2232 0
2119 2209 2234 0
2119 2211 2236 0
2119 2213 2238 0
2119 2215 2240 0
2119 2217 2242 0
2119 2219 2244 0
2119 2221 2246 0
2119 2223 2248 0
2119 2225 2250 0
2121 2229 2254 0
2121 2231 2256 0
2121 2233 2258 0
2121 2235 2260 0
2121 2237 2262 0
2121 2239 2264 0
2121 2241 2266 0
2121 2243 2268 0
2121 2245 2270 0
2121 2247 2272 0
2123 2251 2276 0
2123 2253 2278 0
2123 2255 2280 0
2123 2257 2282 0
2123 2259 2284 0
2123 2261 2286 0
2123 2263 2288 0
2123 2265 2290 0
2123 2267 2292 0
2123 2269 2294 0
2125 2273 2298 0
2125 2275 2300 0
2125 2277 2302 0
2125 2279 2304 0
2125 2281 2306 0
2125 2283 2308 0
2125 2285 2310 0
2125 2287 2312 0
2125 2289 2314 0
2125 2291 2316 0
2127 2295 2320 0
2127 2297 2322 0
2127 2299 2324 0
2127 2301 2326 0
2127 2303 2328 0
2127 2305 2330 0
2127 2307 2332 0
2127 2309 2334 0
2127 2311 2336 0
2127 2313 2338 0
2129 2317 2342 0
2129 2319 2344 0
2129 2321 2346 0
2129 2323 2348 0
2129 2325 2350 0
2129 2327 2352 0
2129 2329 2354 0
2129 2331 2356 0
2129 2333 2358 0
2129 2335 2360 0
2131 2339 2364 0
2131 2341 2366 0
2131 2343 2368 0
2131 2345 2370 0
2131 2347 2372 0
2131 2349 2374 0
2131 2351 2376 0
2131 2353 2378 0
2131 2355 2380 0
2131 2357 2382 0
2133 2361 2386 0
2133 2363 2388 0
2133 2365 2390 0
2133 2367 2392 0
2133 2369 2394 0
2133 2371 2396 0
2133 2373 2398 0
2133 2375 2400 0
2133 2377 2402 0
2133 2379 2404 0
2135 2383 2408 0
2135 2385 2410 0
2135 2387 2412 0
2135 2389 2414 0
2135 2391 2416 0
2135 2393 2418 0
2135 2395 2420 0
2135 2397 2422 0
2135 2399 2424 0
2135 2401 2426 0
2137 2405 2430 0
2137 2407 2432 0
2137 2409 2434 0
2137 2411 2436 0
2137 2413 2438 0
2137 2415 2440 0
2137 2417 2442 0
2137 2419 2444 0
2137 2421 2446 0
2137 2423 2448 0
2139 2427 2452 0
2139 2429 2454 0
2139 2431 2456 0
2139 2433 2458 0
2139 2435 2460 0
2139 2437 2462 0
2139 2439 2464 0
2139 2441 2466 0
2139 2443 2468 0
2139 2445 2470 0
2113 2161 0
2115 2183 0
2117 2205 0
2119 2227 0
2121 2249 0
2123 2271 0
2125 2293 0
2127 2315 0
2129 2337 0
2131 2359 0
2133 2381 0
2135 2403 0
2137 2425 0
2139 2447 0
7 2472 0
15 2480 0
21 2488 0
25 2496 0
29 2504 0
35 2512 0
41 2520 0
45 2528 0
49 2536 0
53 2544 0
57 2552 0
61 2560 0
63 2568 0
67 2576 0
69 2584 0
2471 2480 0
2473 2482 0
2475 2484 0
2477 2486 0
2479 2488 0
2481 2490 0
2483 2492 0
2485 2494 0
2487 2496 0
2489 2498 0
2491 2500 0
2493 2502 0
2495 2504 0
2497 2506 0
2499 2508 0
2501 2510 0
2503 2512 0
2505 2514 0
2507 2516 0
2509 2518 0
2511 2520 0
2513 2522 0
2515 2524 0
2517 2526 0
2519 2528 0
2521 2530 0
2523 2532 0
2525 2534 0
2527 2536 0
2529 2538 0
2531 2540 0
2533 2542 0
2535 2544 0
2537 2546 0
2539 2548 0
2541 2550 0
2543 2552 0
2545 2554 0
2547 2556 0
2549 2558 0
2551 2560 0
2553 2562 0
2555 2564 0
2557 2566 0
2559 2568 0
2561 2570 0
2563 2572 0
2565 2574 0
2567 2576 0
2569 2578 0
2571 2580 0
2573 2582 0
2575 2584 0
2577 2586 0
2579 2588 0
2581 2590 0
15 2471 2482 0
15 2473 2484 0
15 2475 2486 0
21 2479 2490 0
21 2481 2492 0
21 2483 2494 0
25 2487 2498 0
25 2489 2500 0
25 2491 2502 0
29 2495 2506 0
29 2497 2508 0
29 2499 2510 0
35 2503 2514 0
35 2505 2516 0
35 2507 2518 0
41 2511 2522 0
41 2513 2524 0
41 2515 2526 0
45 2519 2530 0
45 2521 2532 0
45 2523 2534 0
49 2527 2538 0
49 2529 2540 0
49 2531 2542 0
53 2535 2546 0
53 2537 2548 0
53 2539 2550 0
57 2543 2554 0
57 2545 2556 0
57 2547 2558 0
61 2551 2562 0
61 2553 2564 0
61 2555 2566 0
63 2559 2570 0
63 2561 2572 0
63 2563 2574 0
67 2567 2578 0
67 2569 2580 0
67 2571 2582 0
69 2575 2586 0
69 2577 2588 0
69 2579 2590 0
15 2477 0
21 2485 0
25 2493 0
29 2501 0
35 2509 0
41 2517 0
45 2525 0
49 2533 0
53 2541 0
57 2549 0
61 2557 0
63 2565 0
67 2573 0
69 2581 0
2592 8 0
2591 7 0
2594 16 0
2593 15 0
2596 22 0
2595 21 0
2598 26 0
2597 25 0
2600 30 0
2599 29 0
2602 36 0
2601 35 0
2604 42 0
2603 41 0
2606 46 0
2605 45 0
2608 50 0
2607 49 0
2610 54 0
2609 53 0
2612 58 0
2611 57 0
2614 62 0
2613 61 0
2616 64 0
2615 63 0
2618 68 0
2617 67 0
2620 70 0
2619 69 0
2591 2622 0
2593 2644 0
2595 2666 0
2597 2688 0
2599 2710 0
2601 2732 0
2603 2754 0
2605 2776 0
2607 2798 0
2609 2820 0
2611 2842 0
2613 2864 0
2615 2886 0
2617 2908 0
2619 2930 0
2621 2644 0
2623 2646 0
2625 2648 0
2627 2650 0
2629 2652 0
2631 2654 0
2633 2656 0
2635 2658 0
2637 2660 0
2639 2662 0
2641 2664 0
2643 2666 0
2645 2668 0
2647 2670 0
2649 2672 0
2651 2674 0
2653 2676 0
2655 2678 0
2657 2680 0
2659 2682 0
2661 2684 0
2663 2686 0
2665 2688 0
2667 2690 0
2669 2692 0
2671 2694 0
2673 2696 0
2675 2698 0
2677 2700 0
2679 2702 0
2681 2704 0
2683 2706 0
2685 2708 0
2687 2710 0
2689 2712 0
2691 2714 0
2693 2716 0
2695 2718 0
2697 2720 0
2699 2722 0
2701 2724 0
2703 2726 0
2705 2728 0
2707 2730 0
2709 2732 0
2711 2734 0
2713 2736 0
2715 2738 0
2717 2740 0
2719 2742 0
2721 2744 0
2723 2746 0
2725 2748 0
2727 2750 0
2729 2752 0
2731 2754 0
2733 2756 0
2735 2758 0
2737 2760 0
2739 2762 0
2741 2764 0
2743 2766 0
2745 2768 0
2747 2770 0
2749 2772 0
2751 2774 0
2753 2776 0
2755 2778 0
2757 2780 0
2759 2782 0
2761 2784 0
2763 2786 0
2765 2788 0
2767 2790 0
2769 2792 0
2771 2794 0
2773 2796 0
2775 2798 0
2777 2800 0
2779 2802 0
2781 2804 0
2783 2806 0
2785 2808 0
2787 2810 0
2789 2812 0
2791 2814 0
2793 2816 0
2795 2818 0
2797 2820 0
2799 2822 0
2801 2824 0
2803 2826 0
2805 2828 0
2807 2830 0
2809 2832 0
2811 2834 0
2813 2836 0
2815 2838 0
2817 2840 0
2819 2842 0
2821 2844 0
2823 2846 0
2825 2848 0
2827 2850 0
2829 2852 0
2831 2854 0
2833 2856 0
2835 2858 0
2837 2860 0
2839 2862 0
2841 2864 0
2843 2866 0
2845 2868 0
2847 2870 0
2849 2872 0
2851 2874 0
2853 2876 0
2855 2878 0
2857 2880 0
2859 2882 0
2861 2884 0
2863 2886 0
2865 2888 0
2867 2890 0
2869 2892 0
2871 2894 0
2873 2896 0
2875 2898 0
2877 2900 0
2879 2902 0
2881 2904 0
2883 2906 0
2885 2908 0
2887 2910 0
2889 2912 0
2891 2914 0
2893 2916 0
2895 2918 0
2897 2920 0
2899 2922 0
2901 2924 0
2903 2926 0
2905 2928 0
2907 2930 0
2909 2932 0
2911 2934 0
2913 2936 0
2915 2938 0
2917 2940 0
2919 2942 0
2921 2944 0
2923 2946 0
2925 2948 0
2927 2950 0
2593 2621 2646 0
2593 2623 2648 0
2593 2625 2650 0
2593 2627 2652 0
2593 2629 2654 0
2593 2631 2656 0
2593 2633 2658 0
2593 2635 2660 0
2593 2637 2662 0
2593 2639 2664 0
2595 2643 2668 0
2595 2645 2670 0
2595 2647 2672 0
2595 2649 2674 0
2595 2651 2676 0
2595 2653 2678 0
2595 2655 2680 0
2595 2657 2682 0
2595 2659 2684 0
2595 2661 2686 0
2597 2665 2690 0
2597 2667 2692 0
2597 2669 2694 0
2597 2671 2696 0
2597 2673 2698 0
2597 2675 2700 0
2597 2677 2702 0
2597 2679 2704 0
2597 2681 2706 0
2597 2683 2708 0
2599 2687 2712 0
2599 2689 2714 0
2599 2691 2716 0
2599 2693 2718 0
2599 2695 2720 0
2599 2697 2722 0
2599 2699 2724 0
2599 2701 2726 0
2599 2703 2728 0
2599 2705 2730 0
2601 2709 2734 0
2601 2711 2736 0
2601 2713 2738 0
2601 2715 2740 0
2601 2717 2742 0
2601 2719 2744 0
2601 2721 2746 0
2601 2723 2748 0
2601 2725 2750 0
2601 2727 2752 0
2603 2731 2756 0
2603 2733 2758 0
2603 2735 2760 0
2603 2737 2762 0
2603 2739 2764 0
2603 2741 2766 0
2603 2743 2768 0
2603 2745 2770 0
2603 2747 2772 0
2603 2749 2774 0
2605 2753 2778 0
2605 2755 2780 0
2605 2757 2782 0
2605 2759 2784 0
2605 2761 2786 0
2605 2763 2788 0
2605 2765 2790 0
2605 2767 2792 0
2605 2769 2794 0
2605 2771 2796 0
2607 2775 2800 0
2607 2777 2802 0
2607 2779 2804 0
2607 2781 2806 0
2607 2783 2808 0
2607 2785 2810 0
2607 2787 2812 0
2607 2789 2814 0
2607 2791 2816 0
2607 2793 2818 0
2609 2797 2822 0
2609 2799 2824 0
2609 2801 2826 0
2609 2803 2828 0
2609 2805 2830 0
2609 2807 2832 0
2609 2809 2834 0
2609 2811 2836 0
2609 2813 2838 0
2609 2815 2840 0
2611 2819 2844 0
2611 2821 2846 0
2611 2823 2848 0
2611 2825 2850 0
2611 2827 2852 0
2611 2829 2854 0
2611 2831 2856 0
2611 2833 2858 0
2611 2835 2860 0
2611 2837 2862 0
2613 2841 2866 0
2613 2843 2868 0
2613 2845 2870 0
2613 2847 2872 0
2613 2849 2874 0
2613 2851 2876 0
2613 2853 2878 0
2613 2855 2880 0
2613 2857 2882 0
2613 2859 2884 0
2615 2863 2888 0
2615 2865 2890 0
2615 2867 2892 0
2615 2869 2894 0
2615 2871 2896 0
2615 2873 2898 0
2615 2875 2900 0
2615 2877 2902 0
2615 2879 2904 0
2615 2881 2906 0
2617 2885 2910 0
2617 2887 2912 0
2617 2889 2914 0
2617 2891 2916 0
2617 2893 2918 0
2617 2895 2920 0
2617 2897 2922 0
2617 2899 2924 0
2617 2901 2926 0
2617 2903 2928 0
2619 2907 2932 0
2619 2909 2934 0
2619 2911 2936 0
2619 2913 2938 0
2619 2915 2940 0
2619 2917 2942 0
2619 2919 2944 0
2619 2921 2946 0
2619 2923 2948 0
2619 2925 2950 0
2593 2641 0
2595 2663 0
2597 2685 0
2599 2707 0
2601 2729 0
2603 2751 0
2605 2773 0
2607 2795 0
2609 2817 0
2611 2839 0
2613 2861 0
2615 2883 0
2617 2905 0
2619 2927 0
9 2952 0
17 2960 0
23 2968 0
27 2976 0
29 2984 0
37 2992 0
43 3000 0
47 3008 0
49 3016 0
55 3024 0
59 3032 0
61 3040 0
65 3048 0
67 3056 0
69 3064 0
2951 2960 0
2953 2962 0
2955 2964 0
2957 2966 0
2959 2968 0
2961 2970 0
2963 2972 0
2965 2974 0
2967 2976 0
2969 2978 0
2971 2980 0
2973 2982 0
2975 2984 0
2977 2986 0
2979 2988 0
2981 2990 0
2983 2992 0
2985 2994 0
2987 2996 0
2989 2998 0
2991 3000 0
2993 3002 0
2995 3004 0
2997 3006 0
2999 3008 0
3001 3010 0
3003 3012 0
3005 3014 0
3007 3016 0
3009 3018 0
3011 3020 0
3013 3022 0
3015 3024 0
3017 3026 0
3019 3028 0
3021 3030 0
3023 3032 0
3025 3034 0
3027 3036 0
3029 3038 0
3031 3040 0
3033 3042 0
3035 3044 0
3037 3046 0
3039 3048 0
3041 3050 0
3043 3052 0
3045 3054 0
3047 3056 0
3049 3058 0
3051 3060 0
3053 3062 0
3055 3064 0
3057 3066 0
3059 3068 0
3061 3070 0
17 2951 2962 0
17 2953 2964 0
17 2955 2966 0
23 2959 2970 0
23 2961 2972 0
23 2963 2974 0
27 2967 2978 0
27 2969 2980 0
27 2971 2982 0
29 2975 2986 0
29 2977 2988 0
29 2979 2990 0
37 2983 2994 0
37 2985 2996 0
37 2987 2998 0
43 2991 3002 0
43 2993 3004 0
43 2995 3006 0
47 2999 3010 0
47 3001 3012 0
47 3003 3014 0
49 3007 3018 0
49 3009 3020 0
49 3011 3022 0
55 3015 3026 0
55 3017 3028 0
55 3019 3030 0
59 3023 3034 0
59 3025 3036 0
59 3027 3038 0
61 3031 3042 0
61 3033 3044 0
61 3035 3046 0
65 3039 3050 0
65 3041 3052 0
65 3043 3054 0
67 3047 3058 0
67 3049 3060 0
67 3051 3062 0
69 3055 3066 0
69 3057 3068 0
69 3059 3070 0
17 2957 0
23 2965 0
27 2973 0
29 2981 0
37 2989 0
43 2997 0
47 3005 0
49 3013 0
55 3021 0
59 3029 0
61 3037 0
65 3045 0
67 3053 0
69 3061 0
3072 10 0
3071 9 0
3074 18 0
3073 17 0
3076 24 0
3075 23 0
3078 28 0
3077 27 0
3080 30 0
3079 29 0
3082 38 0
3081 37 0
3084 44 0
3083 43 0
3086 48 0
3085 47 0
3088 50 0
3087 49 0
3090 56 0
3089 55 0
3092 60 0
3091 59 0
3094 62 0
3093 61 0
3096 66 0
3095 65 0
3098 68 0
3097 67 0
3100 70 0
3099 69 0
3071 3102 0
3073 3124 0
3075 3146 0
3077 3168 0
3079 3190 0
3081 3212 0
3083 3234 0
3085 3256 0
3087 3278 0
3089 3300 0
3091 3322 0
3093 3344 0
3095 3366 0
3097 3388 0
3099 3410 0
3101 3124 0
3103 3126 0
3105 3128 0
3107 3130 0
3109 3132 0
3111 3134 0
3113 3136 0
3115 3138 0
3117 3140 0
3119 3142 0
3121 3144 0
3123 3146 0
3125 3148 0
3127 3150 0
3129 3152 0
3131 3154 0
3133 3156 0
3135 3158 0
3137 3160 0
3139 3162 0
3141 3164 0
3143 3166 0
3145 3168 0
3147 3170 0
3149 3172 0
3151 3174 0
3153 3176 0
3155 3178 0
3157 3180 0
3159 3182 0
3161 3184 0
3163 3186 0
3165 3188 0
3167 3190 0
3169 3192 0
3171 3194 0
3173 3196 0
3175 3198 0
3177 3200 0
3179 3202 0
3181 3204 0
3183 3206 0
3185 3208 0
3187 3210 0
3189 3212 0
3191 3214 0
3193 3216 0
3195 3218 0
3197 3220 0
3199 3222 0
3201 3224 0
3203 3226 0
3205 3228 0
3207 3230 0
3209 3232 0
3211 3234 0
3213 3236 0
3215 3238 0
3217 3240 0
3219 3242 0
3221 3244 0
3223 3246 0
3225 3248 0
3227 3250 0
3229 3252 0
3231 3254 0
3233 3256 0
3235 3258 0
3237 3260 0
3239 3262 0
3241 3264 0
3243 3266 0
3245 3268 0
3247 3270 0
3249 3272 0
3251 3274 0
3253 3276 0
3255 3278 0
3257 3280 0
3259 3282 0
3261 3284 0
3263 3286 0
3265 3288 0
3267 3290 0
3269 3292 0
3271 3294 0
3273 3296 0
3275 3298 0
3277 3300 0
3279 3302 0
3281 3304 0
3283 3306 0
3285 3308 0
3287 3310 0
3289 3312 0
3291 3314 0
3293 3316 0
3295 3318 0
3297 3320 0
3299 3322 0
3301 3324 0
3303 3326 0
3305 3328 0
3307 3330 0
3309 3332 0
3311 3334 0
3313 3336 0
3315 3338 0
3317 3340 0
3319 3342 0
3321 3344 0
3323 3346 0
3325 3348 0
3327 3350 0
3329 3352 0
3331 3354 0
3333 3356 0
3335 3358 0
3337 3360 0
3339 3362 0
3341 3364 0
3343 3366 0
3345 3368 0
3347 3370 0
3349 3372 0
3351 3374 0
3353 3376 0
3355 3378 0
3357 3380 0
3359 3382 0
3361 3384 0
3363 3386 0
3365 3388 0
3367 3390 0
3369 3392 0
3371 3394 0
3373 3396 0
3375 3398 0
3377 3400 0
3379 3402 0
3381 3404 0
3383 3406 0
3385 3408 0
3387 3410 0
3389 3412 0
3391 3414 0
3393 3416 0
3395 3418 0
3397 3420 0
3399 3422 0
3401 3424 0
3403 3426 0
3405 3428 0
3407 3430 0
3073 3101 3126 0
3073 3103 3128 0
3073 3105 3130 0
3073 3107 3132 0
3073 3109 3134 0
3073 3111 3136 0
3073 3113 3138 0
3073 3115 3140 0
3073 3117 3142 0
3073 3119 3144 0
3075 3123 3148 0
3075 3125 3150 0
3075 3127 3152 0
3075 3129 3154 0
3075 3131 3156 0
3075 3133 3158 0
3075 3135 3160 0
3075 3137 3162 0
3075 3139 3164 0
3075 3141 3166 0
3077 3145 3170 0
3077 3147 3172 0
3077 3149 3174 0
3077 3151 3176 0
3077 3153 3178 0
3077 3155 3180 0
3077 3157 3182 0
3077 3159 3184 0
3077 3161 3186 0
3077 3163 3188 0
3079 3167 3192 0
3079 3169 3194 0
3079 3171 3196 0
3079 3173 3198 0
3079 3175 3200 0
3079 3177 3202 0
3079 3179 3204 0
3079 3181 3206 0
3079 3183 3208 0
3079 3185 3210 0
3081 3189 3214 0
3081 3191 3216 0
3081 3193 3218 0
3081 3195 3220 0
3081 3197 3222 0
3081 3199 3224 0
3081 3201 3226 0
3081 3203 3228 0
3081 3205 3230 0
3081 3207 3232 0
3083 3211 3236 0
3083 3213 3238 0
3083 3215 3240 0
3083 3217 3242 0
3083 3219 3244 0
3083 3221 3246 0
3083 3223 3248 0
3083 3225 3250 0
3083 3227 3252 0
3083 3229 3254 0
3085 3233 3258 0
3085 3235 3260 0
3085 3237 3262 0
3085 3239 3264 0
3085 3241 3266 0
3085 3243 3268 0
3085 3245 3270 0
3085 3247 3272 0
3085 3249 3274 0
3085 3251 3276 0
3087 3255 3280 0
3087 3257 3282 0
3087 3259 3284 0
3087 3261 3286 0
3087 3263 3288 0
3087 3265 3290 0
3087 3267 3292 0
3087 3269 3294 0
3087 3271 3296 0
3087 3273 3298 0
3089 3277 3302 0
3089 3279 3304 0
3089 3281 3306 0
3089 3283 3308 0
3089 3285 3310 0
3089 3287 3312 0
3089 3289 3314 0
3089 3291 3316 0
3089 3293 3318 0
3089 3295 3320 0
3091 3299 3324 0
3091 3301 3326 0
3091 3303 3328 0
3091 3305 3330 0
3091 3307 3332 0
3091 3309 3334 0
3091 3311 3336 0
3091 3313 3338 0
3091 3315 3340 0
3091 3317 3342 0
3093 3321 3346 0
3093 3323 3348 0
3093 3325 3350 0
3093 3327 3352 0
3093 3329 3354 0
3093 3331 3356 0
3093 3333 3358 0
3093 3335 3360 0
3093 3337 3362 0
3093 3339 3364 0
3095 3343 3368 0
3095 3345 3370 0
3095 3347 3372 0
3095 3349 3374 0
3095 3351 3376 0
3095 3353 3378 0
3095 3355 3380 0
3095 3357 3382 0
3095 3359 3384 0
3095 3361 3386 0
3097 3365 3390 0
3097 3367 3392 0
3097 3369 3394 0
3097 3371 3396 0
3097 3373 3398 0
3097 3375 3400 0
3097 3377 3402 0
3097 3379 3404 0
3097 3381 3406 0
3097 3383 3408 0
3099 3387 3412 0
3099 3389 3414 0
3099 3391 3416 0
3099 3393 3418 0
3099 3395 3420 0
3099 3397 3422 0
3099 3399 3424 0
3099 3401 3426 0
3099 3403 3428 0
3099 3405 3430 0
3073 3121 0
3075 3143 0
3077 3165 0
3079 3187 0
3081 3209 0
3083 3231 0
3085 3253 0
3087 3275 0
3089 3297 0
3091 3319 0
3093 3341 0
3095 3363 0
3097 3385 0
3099 3407 0
1 2 0
-1 -2 0
3 4 0
-3 -4 0
5 6 0
-5 -6 0
7 8 0
-7 -8 0
9 10 0
-9 -10 0
11 12 0
-11 -12 0
13 14 0
-13 -14 0
15 16 0
-15 -16 0
17 18 0
-17 -18 0
19 20 0
-19 -20 0
21 22 0
-21 -22 0
23 24 0
-23 -24 0
25 26 0
-25 -26 0
27 28 0
-27 -28 0
29 30 0
-29 -30 0
31 32 0
-31 -32 0
33 34 0
-33 -34 0
35 36 0
-35 -36 0
37 38 0
-37 -38 0
39 40 0
-39 -40 0
41 42 0
-41 -42 0
43 44 0
-43 -44 0
45 46 0
-45 -46 0
47 48 0
-47 -48 0
49 50 0
-49 -50 0
51 52 0
-51 -52 0
53 54 0
-53 -54 0
55 56 0
-55 -56 0
57 58 0
-57 -58 0
59 60 0
-59 -60 0
61 62 0
-61 -62 0
63 64 0
-63 -64 0
65 66 0
-65 -66 0
67 68 0
-67 -68 0
69 70 0
-69 -70 0
71 72 0
-71 -72 0
73 74 0
-73 -74 0
75 76 0
-75 -76 0
77 78 0
-77 -78 0
79 80 0
-79 -80 0
81 82 0
-81 -82 0
83 84 0
-83 -84 0
85 86 0
-85 -86 0
87 88 0
-87 -88 0
89 90 0
-89 -90 0
91 92 0
-91 -92 0
93 94 0
-93 -94 0
95 96 0
-95 -96 0
97 98 0
-97 -98 0
99 100 0
-99 -100 0
101 102 0
-101 -102 0
103 104 0
-103 -104 0
105 106 0
-105 -106 0
107 108 0
-107 -108 0
109 110 0
-109 -110 0
111 112 0
-111 -112 0
113 114 0
-113 -114 0
115 116 0
-115 -116 0
117 118 0
-117 -118 0
119 120 0
-119 -120 0
121 122 0
-121 -122 0
123 124 0
-123 -124 0
125 126 0
-125 -126 0
127 128 0
-127 -128 0
129 130 0
-129 -130 0
131 132 0
-131 -132 0
133 134 0
-133 -134 0
135 136 0
-135 -136 0
137 138 0
-137 -138 0
139 140 0
-139 -140 0
141 142 0
-141 -142 0
143 144 0
-143 -144 0
145 146 0
-145 -146 0
147 148 0
-147 -148 0
149 150 0
-149 -150 0
151 152 0
-151 -152 0
153 154 0
-153 -154 0
155 156 0
-155 -156 0
157 158 0
-157 -158 0
159 160 0
-159 -160 0
161 162 0
-161 -162 0
163 164 0
-163 -164 0
165 166 0
-165 -166 0
167 168 0
-167 -168 0
169 170 0
-169 -170 0
171 172 0
-171 -172 0
173 174 0
-173 -174 0
175 176 0
-175 -176 0
177 178 0
-177 -178 0
179 180 0
-179 -180 0
181 182 0
-181 -182 0
183 184 0
-183 -184 0
185 186 0
-185 -186 0
187 188 0
-187 -188 0
189 190 0
-189 -190 0
191 192 0
-191 -192 0
193 194 0
-193 -194 0
195 196 0
-195 -196 0
197 198 0
-197 -198 0
199 200 0
-199 -200 0
201 202 0
-201 -202 0
203 204 0
-203 -204 0
205 206 0
-205 -206 0
207 208 0
-207 -208 0
209 210 0
-209 -210 0
211 212 0
-211 -212 0
213 214 0
-213 -214 0
215 216 0
-215 -216 0
217 218 0
-217 -218 0
219 220 0
-219 -220 0
221 222 0
-221 -222 0
223 224 0
-223 -224 0
225 226 0
-225 -226 0
227 228 0
-227 -228 0
229 230 0
-229 -230 0
231 232 0
-231 -232 0
233 234 0
-233 -234 0
235 236 0
-235 -236 0
237 238 0
-237 -238 0
239 240 0
-239 -240 0
241 242 0
-241 -242 0
243 244 0
-243 -244 0
245 246 0
-245 -246 0
247 248 0
-247 -248 0
249 250 0
-249 -250 0
251 252 0
-251 -252 0
253 254 0
-253 -254 0
255 256 0
-255 -256 0
257 258 0
-257 -258 0
259 260 0
-259 -260 0
261 262 0
-261 -262 0
263 264 0
-263 -264 0
265 266 0
-265 -266 0
267 268 0
-267 -268 0
269 270 0
-269 -270 0
271 272 0
-271 -272 0
273 274 0
-273 -274 0
275 276 0
-275 -276 0
277 278 0
-277 -278 0
279 280 0
-279 -280 0
281 282 0
-281 -282 0
283 284 0
-283 -284 0
285 286 0
-285 -286 0
287 288 0
-287 -288 0
289 290 0
-289 -290 0
291 292 0
-291 -292 0
293 294 0
-293 -294 0
295 296 0
-295 -296 0
297 298 0
-297 -298 0
299 300 0
-299 -300 0
301 302 0
-301 -302 0
303 304 0
-303 -304 0
305 306 0
-305 -306 0
307 308 0
-307 -308 0
309 310 0
-309 -310 0
311 312 0
-311 -312 0
313 314 0
-313 -314 0
315 316 0
-315 -316 0
317 318 0
-317 -318 0
319 320 0
-319 -320 0
321 322 0
-321 -322 0
323 324 0
-323 -324 0
325 326 0
-325 -326 0
327 328 0
-327 -328 0
329 330 0
-329 -330 0
331 332 0
-331 -332 0
333 334 0
-333 -334 0
335 336 0
-335 -336 0
337 338 0
-337 -338 0
339 340 0
-339 -340 0
341 342 0
-341 -342 0
343 344 0
-343 -344 0
345 346 0
-345 -346 0
347 348 0
-347 -348 0
349 350 0
-349 -350 0
351 352 0
-351 -352 0
353 354 0
-353 -354 0
355 356 0
-355 -356 0
357 358 0
-357 -358 0
359 360 0
-359 -360 0
361 362 0
-361 -362 0
363 364 0
-363 -364 0
365 366 0
-365 -366 0
367 368 0
-367 -368 0
369 370 0
-369 -370 0
371 372 0
-371 -372 0
373 374 0
-373 -374 0
375 376 0
-375 -376 0
377 378 0
-377 -378 0
379 380 0
-379 -380 0
381 382 0
-381 -382 0
383 384 0
-383 -384 0
385 386 0
-385 -386 0
387 388 0
-387 -388 0
389 390 0
-389 -390 0
391 392 0
-391 -392 0
393 394 0
-393 -394 0
395 396 0
-395 -396 0
397 398 0
-397 -398 0
399 400 0
-399 -400 0
401 402 0
-401 -402 0
403 404 0
-403 -404 0
405 406 0
-405 -406 0
407 408 0
-407 -408 0
409 410 0
-409 -410 0
411 412 0
-411 -412 0
413 414 0
-413 -414 0
415 416 0
-415 -416 0
417 418 0
-417 -418 0
419 420 0
-419 -420 0
421 422 0
-421 -422 0
423 424 0
-423 -424 0
425 426 0
-425 -426 0
427 428 0
-427 -428 0
429 430 0
-429 -430 0
431 432 0
-431 -432 0
433 434 0
-433 -434 0
435 436 0
-435 -436 0
437 438 0
-437 -438 0
439 440 0
-439 -440 0
441 442 0
-441 -442 0
443 444 0
-443 -444 0
445 446 0
-445 -446 0
447 448 0
-447 -448 0
449 450 0
-449 -450 0
451 452 0
-451 -452 0
453 454 0
-453 -454 0
455 456 0
-455 -456 0
457 458 0
-457 -458 0
459 460 0
-459 -460 0
461 462 0
-461 -462 0
463 464 0
-463 -464 0
465 466 0
-465 -466 0
467 468 0
-467 -468 0
469 470 0
-469 -470 0
471 472 0
-471 -472 0
473 474 0
-473 -474 0
475 476 0
-475 -476 0
477 478 0
-477 -478 0
479 480 0
-479 -480 0
481 482 0
-481 -482 0
483 484 0
-483 -484 0
485 486 0
-485 -486 0
487 488 0
-487 -488 0
489 490 0
-489 -490 0
491 492 0
-491 -492 0
493 494 0
-493 -494 0
495 496 0
-495 -496 0
497 498 0
-497 -498 0
499 500 0
-499 -500 0
501 502 0
-501 -502 0
503 504 0
-503 -504 0
505 506 0
-505 -506 0
507 508 0
-507 -508 0
509 510 0
-509 -510 0
511 512 0
-511 -512 0
513 514 0
-513 -514 0
515 516 0
-515 -516 0
517 518 0
-517 -518 0
519 520 0
-519 -520 0
521 522 0
-521 -522 0
523 524 0
-523 -524 0
525 526 0
-525 -526 0
527 528 0
-527 -528 0
529 530 0
-529 -530 0
531 532 0
-531 -532 0
533 534 0
-533 -534 0
535 536 0
-535 -536 0
537 538 0
-537 -538 0
539 540 0
-539 -540 0
541 542 0
-541 -542 0
543 544 0
-543 -544 0
545 546 0
-545 -546 0
547 548 0
-547 -548 0
549 550 0
-549 -550 0
551 552 0
-551 -552 0
553 554 0
-553 -554 0
555 556 0
-555 -556 0
557 558 0
-557 -558 0
559 560 0
-559 -560 0
561 562 0
-561 -562 0
563 564 0
-563 -564 0
565 566 0
-565 -566 0
567 568 0
-567 -568 0
569 570 0
-569 -570 0
571 572 0
-571 -572 0
573 574 0
-573 -574 0
575 576 0
-575 -576 0
577 578 0
-577 -578 0
579 580 0
-579 -580 0
581 582 0
-581 -582 0
583 584 0
-583 -584 0
585 586 0
-585 -586 0
587 588 0
-587 -588 0
589 590 0
-589 -590 0
591 592 0
-591 -592 0
593 594 0
-593 -594 0
595 596 0
-595 -596 0
597 598 0
-597 -598 0
599 600 0
-599 -600 0
601 602 0
-601 -602 0
603 604 0
-603 -604 0
605 606 0
-605 -606 0
607 608 0
-607 -608 0
609 610 0
-609 -610 0
611 612 0
-611 -612 0
613 614 0
-613 -614 0
615 616 0
-615 -616 0
617 618 0
-617 -618 0
619 620 0
-619 -620 0
621 622 0
-621 -622 0
623 624 0
-623 -624 0
625 626 0
-625 -626 0
627 628 0
-627 -628 0
629 630 0
-629 -630 0
631 632 0
-631 -632 0
633 634 0
-633 -634 0
635 636 0
-635 -636 0
637 638 0
-637 -638 0
639 640 0
-639 -640 0
641 642 0
-641 -642 0
643 644 0
-643 -644 0
645 646 0
-645 -646 0
647 648 0
-647 -648 0
649 650 0
-649 -650 0
651 652 0
-651 -652 0
653 654 0
-653 -654 0
655 656 0
-655 -656 0
657 658 0
-657 -658 0
659 660 0
-659 -660 0
661 662 0
-661 -662 0
663 664 0
-663 -664 0
665 666 0
-665 -666 0
667 668 0
-667 -668 0
669 670 0
-669 -670 0
671 672 0
-671 -672 0
673 674 0
-673 -674 0
675 676 0
-675 -676 0
677 678 0
-677 -678 0
679 680 0
-679 -680 0
681 682 0
-681 -682 0
683 684 0
-683 -684 0
685 686 0
-685 -686 0
687 688 0
-687 -688 0
689 690 0
-689 -690 0
691 692 0
-691 -692 0
693 694 0
-693 -694 0
695 696 0
-695 -696 0
697 698 0
-697 -698 0
699 700 0
-699 -700 0
701 702 0
-701 -702 0
703 704 0
-703 -704 0
705 706 0
-705 -706 0
707 708 0
-707 -708 0
709 710 0
-709 -710 0
711 712 0
-711 -712 0
713 714 0
-713 -714 0
715 716 0
-715 -716 0
717 718 0
-717 -718 0
719 720 0
-719 -720 0
721 722 0
-721 -722 0
723 724 0
-723 -724 0
725 726 0
-725 -726 0
727 728 0
-727 -728 0
729 730 0
-729 -730 0
731 732 0
-731 -732 0
733 734 0
-733 -734 0
735 736 0
-735 -736 0
737 738 0
-737 -738 0
739 740 0
-739 -740 0
741 742 0
-741 -742 0
743 744 0
-743 -744 0
745 746 0
-745 -746 0
747 748 0
-747 -748 0
749 750 0
-749 -750 0
751 752 0
-751 -752 0
753 754 0
-753 -754 0
755 756 0
-755 -756 0
757 758 0
-757 -758 0
759 760 0
-759 -760 0
761 762 0
-761 -762 0
763 764 0
-763 -764 0
765 766 0
-765 -766 0
767 768 0
-767 -768 0
769 770 0
-769 -770 0
771 772 0
-771 -772 0
773 774 0
-773 -774 0
775 776 0
-775 -776 0
777 778 0
-777 -778 0
779 780 0
-779 -780 0
781 782 0
-781 -782 0
783 784 0
-783 -784 0
785 786 0
-785 -786 0
787 788 0
-787 -788 0
789 790 0
-789 -790 0
791 792 0
-791 -792 0
793 794 0
-793 -794 0
795 796 0
-795 -796 0
797 798 0
-797 -798 0
799 800 0
-799 -800 0
801 802 0
-801 -802 0
803 804 0
-803 -804 0
805 806 0
-805 -806 0
807 808 0
-807 -808 0
809 810 0
-809 -810 0
811 812 0
-811 -812 0
813 814 0
-813 -814 0
815 816 0
-815 -816 0
817 818 0
-817 -818 0
819 820 0
-819 -820 0
821 822 0
-821 -822 0
823 824 0
-823 -824 0
825 826 0
-825 -826 0
827 828 0
-827 -828 0
829 830 0
-829 -830 0
831 832 0
-831 -832 0
833 834 0
-833 -834 0
835 836 0
-835 -836 0
837 838 0
-837 -838 0
839 840 0
-839 -840 0
841 842 0
-841 -842 0
843 844 0
-843 -844 0
845 846 0
-845 -846 0
847 848 0
-847 -848 0
849 850 0
-849 -850 0
851 852 0
-851 -852 0
853 854 0
-853 -854 0
855 856 0
-855 -856 0
857 858 0
-857 -858 0
859 860 0
-859 -860 0
861 862 0
-861 -862 0
863 864 0
-863 -864 0
865 866 0
-865 -866 0
867 868 0
-867 -868 0
869 870 0
-869 -870 0
871 872 0
-871 -872 0
873 874 0
-873 -874 0
875 876 0
-875 -876 0
877 878 0
-877 -878 0
879 880 0
-879 -880 0
881 882 0
-881 -882 0
883 884 0
-883 -884 0
885 886 0
-885 -886 0
887 888 0
-887 -888 0
889 890 0
-889 -890 0
891 892 0
-891 -892 0
893 894 0
-893 -894 0
895 896 0
-895 -896 0
897 898 0
-897 -898 0
899 900 0
-899 -900 0
901 902 0
-901 -902 0
903 904 0
-903 -904 0
905 906 0
-905 -906 0
907 908 0
-907 -908 0
909 910 0
-909 -910 0
911 912 0
-911 -912 0
913 914 0
-913 -914 0
915 916 0
-915 -916 0
917 918 0
-917 -918 0
919 920 0
-919 -920 0
921 922 0
-921 -922 0
923 924 0
-923 -924 0
925 926 0
-925 -926 0
927 928 0
-927 -928 0
929 930 0
-929 -930 0
931 932 0
-931 -932 0
933 934 0
-933 -934 0
935 936 0
-935 -936 0
937 938 0
-937 -938 0
939 940 0
-939 -940 0
941 942 0
-941 -942 0
943 944 0
-943 -944 0
945 946 0
-945 -946 0
947 948 0
-947 -948 0
949 950 0
-949 -950 0
951 952 0
-951 -952 0
953 954 0
-953 -954 0
955 956 0
-955 -956 0
957 958 0
-957 -958 0
959 960 0
-959 -960 0
961 962 0
-961 -962 0
963 964 0
-963 -964 0
965 966 0
-965 -966 0
967 968 0
-967 -968 0
969 970 0
-969 -970 0
971 972 0
-971 -972 0
973 974 0
-973 -974 0
975 976 0
-975 -976 0
977 978 0
-977 -978 0
979 980 0
-979 -980 0
981 982 0
-981 -982 0
983 984 0
-983 -984 0
985 986 0
-985 -986 0
987 988 0
-987 -988 0
989 990 0
-989 -990 0
991 992 0
-991 -992 0
993 994 0
-993 -994 0
995 996 0
-995 -996 0
997 998 0
-997 -998 0
999 1000 0
-999 -1000 0
1001 1002 0
-1001 -1002 0
1003 1004 0
-1003 -1004 0
1005 1006 0
-1005 -1006 0
1007 1008 0
-1007 -1008 0
1009 1010 0
-1009 -1010 0
1011 1012 0
-1011 -1012 0
1013 1014 0
-1013 -1014 0
1015 1016 0
-1015 -1016 0
1017 1018 0
-1017 -1018 0
1019 1020 0
-1019 -1020 0
1021 1022 0
-1021 -1022 0
1023 1024 0
-1023 -1024 0
1025 1026 0
-1025 -1026 0
1027 1028 0
-1027 -1028 0
1029 1030 0
-1029 -1030 0
1031 1032 0
-1031 -1032 0
1033 1034 0
-1033 -1034 0
1035 1036 0
-1035 -1036 0
1037 1038 0
-1037 -1038 0
1039 1040 0
-1039 -1040 0
1041 1042 0
-1041 -1042 0
1043 1044 0
-1043 -1044 0
1045 1046 0
-1045 -1046 0
1047 1048 0
-1047 -1048 0
1049 1050 0
-1049 -1050 0
1051 1052 0
-1051 -1052 0
1053 1054 0
-1053 -1054 0
1055 1056 0
-1055 -1056 0
1057 1058 0
-1057 -1058 0
1059 1060 0
-1059 -1060 0
1061 1062 0
-1061 -1062 0
1063 1064 0
-1063 -1064 0
1065 1066 0
-1065 -1066 0
1067 1068 0
-1067 -1068 0
1069 1070 0
-1069 -1070 0
1071 1072 0
-1071 -1072 0
1073 1074 0
-1073 -1074 0
1075 1076 0
-1075 -1076 0
1077 1078 0
-1077 -1078 0
1079 1080 0
-1079 -1080 0
1081 1082 0
-1081 -1082 0
1083 1084 0
-1083 -1084 0
1085 1086 0
-1085 -1086 0
1087 1088 0
-1087 -1088 0
1089 1090 0
-1089 -1090 0
1091 1092 0
-1091 -1092 0
1093 1094 0
-1093 -1094 0
1095 1096 0
-1095 -1096 0
1097 1098 0
-1097 -1098 0
1099 1100 0
-1099 -1100 0
1101 1102 0
-1101 -1102 0
1103 1104 0
-1103 -1104 0
1105 1106 0
-1105 -1106 0
1107 1108 0
-1107 -1108 0
1109 1110 0
-1109 -1110 0
1111 1112 0
-1111 -1112 0
1113 1114 0
-1113 -1114 0
1115 1116 0
-1115 -1116 0
1117 1118 0
-1117 -1118 0
1119 1120 0
-1119 -1120 0
1121 1122 0
-1121 -1122 0
1123 1124 0
-1123 -1124 0
1125 1126 0
-1125 -1126 0
1127 1128 0
-1127 -1128 0
1129 1130 0
-1129 -1130 0
1131 1132 0
-1131 -1132 0
1133 1134 0
-1133 -1134 0
1135 1136 0
-1135 -1136 0
1137 1138 0
-1137 -1138 0
1139 1140 0
-1139 -1140 0
1141 1142 0
-1141 -1142 0
1143 1144 0
-1143 -1144 0
1145 1146 0
-1145 -1146 0
1147 1148 0
-1147 -1148 0
1149 1150 0
-1149 -1150 0
1151 1152 0
-1151 -1152 0
1153 1154 0
-1153 -1154 0
1155 1156 0
-1155 -1156 0
1157 1158 0
-1157 -1158 0
1159 1160 0
-1159 -1160 0
1161 1162 0
-1161 -1162 0
1163 1164 0
-1163 -1164 0
1165 1166 0
-1165 -1166 0
1167 1168 0
-1167 -1168 0
1169 1170 0
-1169 -1170 0
1171 1172 0
-1171 -1172 0
1173 1174 0
-1173 -1174 0
1175 1176 0
-1175 -1176 0
1177 1178 0
-1177 -1178 0
1179 1180 0
-1179 -1180 0
1181 1182 0
-1181 -1182 0
1183 1184 0
-1183 -1184 0
1185 1186 0
-1185 -1186 0
1187 1188 0
-1187 -1188 0
1189 1190 0
-1189 -1190 0
1191 1192 0
-1191 -1192 0
1193 1194 0
-1193 -1194 0
1195 1196 0
-1195 -1196 0
1197 1198 0
-1197 -1198 0
1199 1200 0
-1199 -1200 0
1201 1202 0
-1201 -1202 0
1203 1204 0
-1203 -1204 0
1205 1206 0
-1205 -1206 0
1207 1208 0
-1207 -1208 0
1209 1210 0
-1209 -1210 0
1211 1212 0
-1211 -1212 0
1213 1214 0
-1213 -1214 0
1215 1216 0
-1215 -1216 0
1217 1218 0
-1217 -1218 0
1219 1220 0
-1219 -1220 0
1221 1222 0
-1221 -1222 0
1223 1224 0
-1223 -1224 0
1225 1226 0
-1225 -1226 0
1227 1228 0
-1227 -1228 0
1229 1230 0
-1229 -1230 0
1231 1232 0
-1231 -1232 0
1233 1234 0
-1233 -1234 0
1235 1236 0
-1235 -1236 0
1237 1238 0
-1237 -1238 0
1239 1240 0
-1239 -1240 0
1241 1242 0
-1241 -1242 0
1243 1244 0
-1243 -1244 0
1245 1246 0
-1245 -1246 0
1247 1248 0
-1247 -1248 0
1249 1250 0
-1249 -1250 0
1251 1252 0
-1251 -1252 0
1253 1254 0
-1253 -1254 0
1255 1256 0
-1255 -1256 0
1257 1258 0
-1257 -1258 0
1259 1260 0
-1259 -1260 0
1261 1262 0
-1261 -1262 0
1263 1264 0
-1263 -1264 0
1265 1266 0
-1265 -1266 0
1267 1268 0
-1267 -1268 0
1269 1270 0
-1269 -1270 0
1271 1272 0
-1271 -1272 0
1273 1274 0
-1273 -1274 0
1275 1276 0
-1275 -1276 0
1277 1278 0
-1277 -1278 0
1279 1280 0
-1279 -1280 0
1281 1282 0
-1281 -1282 0
1283 1284 0
-1283 -1284 0
1285 1286 0
-1285 -1286 0
1287 1288 0
-1287 -1288 0
1289 1290 0
-1289 -1290 0
1291 1292 0
-1291 -1292 0
1293 1294 0
-1293 -1294 0
1295 1296 0
-1295 -1296 0
1297 1298 0
-1297 -1298 0
1299 1300 0
-1299 -1300 0
1301 1302 0
-1301 -1302 0
1303 1304 0
-1303 -1304 0
1305 1306 0
-1305 -1306 0
1307 1308 0
-1307 -1308 0
1309 1310 0
-1309 -1310 0
1311 1312 0
-1311 -1312 0
1313 1314 0
-1313 -1314 0
1315 1316 0
-1315 -1316 0
1317 1318 0
-1317 -1318 0
1319 1320 0
-1319 -1320 0
1321 1322 0
-1321 -1322 0
1323 1324 0
-1323 -1324 0
1325 1326 0
-1325 -1326 0
1327 1328 0
-1327 -1328 0
1329 1330 0
-1329 -1330 0
1331 1332 0
-1331 -1332 0
1333 1334 0
-1333 -1334 0
1335 1336 0
-1335 -1336 0
1337 1338 0
-1337 -1338 0
1339 1340 0
-1339 -1340 0
1341 1342 0
-1341 -1342 0
1343 1344 0
-1343 -1344 0
1345 1346 0
-1345 -1346 0
1347 1348 0
-1347 -1348 0
1349 1350 0
-1349 -1350 0
1351 1352 0
-1351 -1352 0
1353 1354 0
-1353 -1354 0
1355 1356 0
-1355 -1356 0
1357 1358 0
-1357 -1358 0
1359 1360 0
-1359 -1360 0
1361 1362 0
-1361 -1362 0
1363 1364 0
-1363 -1364 0
1365 1366 0
-1365 -1366 0
1367 1368 0
-1367 -1368 0
1369 1370 0
-1369 -1370 0
1371 1372 0
-1371 -1372 0
1373 1374 0
-1373 -1374 0
1375 1376 0
-1375 -1376 0
1377 1378 0
-1377 -1378 0
1379 1380 0
-1379 -1380 0
1381 1382 0
-1381 -1382 0
1383 1384 0
-1383 -1384 0
1385 1386 0
-1385 -1386 0
1387 1388 0
-1387 -1388 0
1389 1390 0
-1389 -1390 0
1391 1392 0
-1391 -1392 0
1393 1394 0
-1393 -1394 0
1395 1396 0
-1395 -1396 0
1397 1398 0
-1397 -1398 0
1399 1400 0
-1399 -1400 0
1401 1402 0
-1401 -1402 0
1403 1404 0
-1403 -1404 0
1405 1406 0
-1405 -1406 0
1407 1408 0
-1407 -1408 0
1409 1410 0
-1409 -1410 0
1411 1412 0
-1411 -1412 0
1413 1414 0
-1413 -1414 0
1415 1416 0
-1415 -1416 0
1417 1418 0
-1417 -1418 0
1419 1420 0
-1419 -1420 0
1421 1422 0
-1421 -1422 0
1423 1424 0
-1423 -1424 0
1425 1426 0
-1425 -1426 0
1427 1428 0
-1427 -1428 0
1429 1430 0
-1429 -1430 0
1431 1432 0
-1431 -1432 0
1433 1434 0
-1433 -1434 0
1435 1436 0
-1435 -1436 0
1437 1438 0
-1437 -1438 0
1439 1440 0
-1439 -1440 0
1441 1442 0
-1441 -1442 0
1443 1444 0
-1443 -1444 0
1445 1446 0
-1445 -1446 0
1447 1448 0
-1447 -1448 0
1449 1450 0
-1449 -1450 0
1451 1452 0
-1451 -1452 0
1453 1454 0
-1453 -1454 0
1455 1456 0
-1455 -1456 0
1457 1458 0
-1457 -1458 0
1459 1460 0
-1459 -1460 0
1461 1462 0
-1461 -1462 0
1463 1464 0
-1463 -1464 0
1465 1466 0
-1465 -1466 0
1467 1468 0
-1467 -1468 0
1469 1470 0
-1469 -1470 0
1471 1472 0
-1471 -1472 0
1473 1474 0
-1473 -1474 0
1475 1476 0
-1475 -1476 0
1477 1478 0
-1477 -1478 0
1479 1480 0
-1479 -1480 0
1481 1482 0
-1481 -1482 0
1483 1484 0
-1483 -1484 0
1485 1486 0
-1485 -1486 0
1487 1488 0
-1487 -1488 0
1489 1490 0
-1489 -1490 0
1491 1492 0
-1491 -1492 0
1493 1494 0
-1493 -1494 0
1495 1496 0
-1495 -1496 0
1497 1498 0
-1497 -1498 0
1499 1500 0
-1499 -1500 0
1501 1502 0
-1501 -1502 0
1503 1504 0
-1503 -1504 0
1505 1506 0
-1505 -1506 0
1507 1508 0
-1507 -1508 0
1509 1510 0
-1509 -1510 0
1511 1512 0
-1511 -1512 0
1513 1514 0
-1513 -1514 0
1515 1516 0
-1515 -1516 0
1517 1518 0
-1517 -1518 0
1519 1520 0
-1519 -1520 0
1521 1522 0
-1521 -1522 0
1523 1524 0
-1523 -1524 0
1525 1526 0
-1525 -1526 0
1527 1528 0
-1527 -1528 0
1529 1530 0
-1529 -1530 0
1531 1532 0
-1531 -1532 0
1533 1534 0
-1533 -1534 0
1535 1536 0
-1535 -1536 0
1537 1538 0
-1537 -1538 0
1539 1540 0
-1539 -1540 0
1541 1542 0
-1541 -1542 0
1543 1544 0
-1543 -1544 0
1545 1546 0
-1545 -1546 0
1547 1548 0
-1547 -1548 0
1549 1550 0
-1549 -1550 0
1551 1552 0
-1551 -1552 0
1553 1554 0
-1553 -1554 0
1555 1556 0
-1555 -1556 0
1557 1558 0
-1557 -1558 0
1559 1560 0
-1559 -1560 0
1561 1562 0
-1561 -1562 0
1563 1564 0
-1563 -1564 0
1565 1566 0
-1565 -1566 0
1567 1568 0
-1567 -1568 0
1569 1570 0
-1569 -1570 0
1571 1572 0
-1571 -1572 0
1573 1574 0
-1573 -1574 0
1575 1576 0
-1575 -1576 0
1577 1578 0
-1577 -1578 0
1579 1580 0
-1579 -1580 0
1581 1582 0
-1581 -1582 0
1583 1584 0
-1583 -1584 0
1585 1586 0
-1585 -1586 0
1587 1588 0
-1587 -1588 0
1589 1590 0
-1589 -1590 0
1591 1592 0
-1591 -1592 0
1593 1594 0
-1593 -1594 0
1595 1596 0
-1595 -1596 0
1597 1598 0
-1597 -1598 0
1599 1600 0
-1599 -1600 0
1601 1602 0
-1601 -1602 0
1603 1604 0
-1603 -1604 0
1605 1606 0
-1605 -1606 0
1607 1608 0
-1607 -1608 0
1609 1610 0
-1609 -1610 0
1611 1612 0
-1611 -1612 0
1613 1614 0
-1613 -1614 0
1615 1616 0
-1615 -1616 0
1617 1618 0
-1617 -1618 0
1619 1620 0
-1619 -1620 0
1621 1622 0
-1621 -1622 0
1623 1624 0
-1623 -1624 0
1625 1626 0
-1625 -1626 0
1627 1628 0
-1627 -1628 0
1629 1630 0
-1629 -1630 0
1631 1632 0
-1631 -1632 0
1633 1634 0
-1633 -1634 0
1635 1636 0
-1635 -1636 0
1637 1638 0
-1637 -1638 0
1639 1640 0
-1639 -1640 0
1641 1642 0
-1641 -1642 0
1643 1644 0
-1643 -1644 0
1645 1646 0
-1645 -1646 0
1647 1648 0
-1647 -1648 0
1649 1650 0
-1649 -1650 0
1651 1652 0
-1651 -1652 0
1653 1654 0
-1653 -1654 0
1655 1656 0
-1655 -1656 0
1657 1658 0
-1657 -1658 0
1659 1660 0
-1659 -1660 0
1661 1662 0
-1661 -1662 0
1663 1664 0
-1663 -1664 0
1665 1666 0
-1665 -1666 0
1667 1668 0
-1667 -1668 0
1669 1670 0
-1669 -1670 0
1671 1672 0
-1671 -1672 0
1673 1674 0
-1673 -1674 0
1675 1676 0
-1675 -1676 0
1677 1678 0
-1677 -1678 0
1679 1680 0
-1679 -1680 0
1681 1682 0
-1681 -1682 0
1683 1684 0
-1683 -1684 0
1685 1686 0
-1685 -1686 0
1687 1688 0
-1687 -1688 0
1689 1690 0
-1689 -1690 0
1691 1692 0
-1691 -1692 0
1693 1694 0
-1693 -1694 0
1695 1696 0
-1695 -1696 0
1697 1698 0
-1697 -1698 0
1699 1700 0
-1699 -1700 0
1701 1702 0
-1701 -1702 0
1703 1704 0
-1703 -1704 0
1705 1706 0
-1705 -1706 0
1707 1708 0
-1707 -1708 0
1709 1710 0
-1709 -1710 0
1711 1712 0
-1711 -1712 0
1713 1714 0
-1713 -1714 0
1715 1716 0
-1715 -1716 0
1717 1718 0
-1717 -1718 0
1719 1720 0
-1719 -1720 0
1721 1722 0
-1721 -1722 0
1723 1724 0
-1723 -1724 0
1725 1726 0
-1725 -1726 0
1727 1728 0
-1727 -1728 0
1729 1730 0
-1729 -1730 0
1731 1732 0
-1731 -1732 0
1733 1734 0
-1733 -1734 0
1735 1736 0
-1735 -1736 0
1737 1738 0
-1737 -1738 0
1739 1740 0
-1739 -1740 0
1741 1742 0
-1741 -1742 0
1743 1744 0
-1743 -1744 0
1745 1746 0
-1745 -1746 0
1747 1748 0
-1747 -1748 0
1749 1750 0
-1749 -1750 0
1751 1752 0
-1751 -1752 0
1753 1754 0
-1753 -1754 0
1755 1756 0
-1755 -1756 0
1757 1758 0
-1757 -1758 0
1759 1760 0
-1759 -1760 0
1761 1762 0
-1761 -1762 0
1763 1764 0
-1763 -1764 0
1765 1766 0
-1765 -1766 0
1767 1768 0
-1767 -1768 0
1769 1770 0
-1769 -1770 0
1771 1772 0
-1771 -1772 0
1773 1774 0
-1773 -1774 0
1775 1776 0
-1775 -1776 0
1777 1778 0
-1777 -1778 0
1779 1780 0
-1779 -1780 0
1781 1782 0
-1781 -1782 0
1783 1784 0
-1783 -1784 0
1785 1786 0
-1785 -1786 0
1787 1788 0
-1787 -1788 0
1789 1790 0
-1789 -1790 0
1791 1792 0
-1791 -1792 0
1793 1794 0
-1793 -1794 0
1795 1796 0
-1795 -1796 0
1797 1798 0
-1797 -1798 0
1799 1800 0
-1799 -1800 0
1801 1802 0
-1801 -1802 0
1803 1804 0
-1803 -1804 0
1805 1806 0
-1805 -1806 0
1807 1808 0
-1807 -1808 0
1809 1810 0
-1809 -1810 0
1811 1812 0
-1811 -1812 0
1813 1814 0
-1813 -1814 0
1815 1816 0
-1815 -1816 0
1817 1818 0
-1817 -1818 0
1819 1820 0
-1819 -1820 0
1821 1822 0
-1821 -1822 0
1823 1824 0
-1823 -1824 0
1825 1826 0
-1825 -1826 0
1827 1828 0
-1827 -1828 0
1829 1830 0
-1829 -1830 0
1831 1832 0
-1831 -1832 0
1833 1834 0
-1833 -1834 0
1835 1836 0
-1835 -1836 0
1837 1838 0
-1837 -1838 0
1839 1840 0
-1839 -1840 0
1841 1842 0
-1841 -1842 0
1843 1844 0
-1843 -1844 0
1845 1846 0
-1845 -1846 0
1847 1848 0
-1847 -1848 0
1849 1850 0
-1849 -1850 0
1851 1852 0
-1851 -1852 0
1853 1854 0
-1853 -1854 0
1855 1856 0
-1855 -1856 0
1857 1858 0
-1857 -1858 0
1859 1860 0
-1859 -1860 0
1861 1862 0
-1861 -1862 0
1863 1864 0
-1863 -1864 0
1865 1866 0
-1865 -1866 0
1867 1868 0
-1867 -1868 0
1869 1870 0
-1869 -1870 0
1871 1872 0
-1871 -1872 0
1873 1874 0
-1873 -1874 0
1875 1876 0
-1875 -1876 0
1877 1878 0
-1877 -1878 0
1879 1880 0
-1879 -1880 0
1881 1882 0
-1881 -1882 0
1883 1884 0
-1883 -1884 0
1885 1886 0
-1885 -1886 0
1887 1888 0
-1887 -1888 0
1889 1890 0
-1889 -1890 0
1891 1892 0
-1891 -1892 0
1893 1894 0
-1893 -1894 0
1895 1896 0
-1895 -1896 0
1897 1898 0
-1897 -1898 0
1899 1900 0
-1899 -1900 0
1901 1902 0
-1901 -1902 0
1903 1904 0
-1903 -1904 0
1905 1906 0
-1905 -1906 0
1907 1908 0
-1907 -1908 0
1909 1910 0
-1909 -1910 0
1911 1912 0
-1911 -1912 0
1913 1914 0
-1913 -1914 0
1915 1916 0
-1915 -1916 0
1917 1918 0
-1917 -1918 0
1919 1920 0
-1919 -1920 0
1921 1922 0
-1921 -1922 0
1923 1924 0
-1923 -1924 0
1925 1926 0
-1925 -1926 0
1927 1928 0
-1927 -1928 0
1929 1930 0
-1929 -1930 0
1931 1932 0
-1931 -1932 0
1933 1934 0
-1933 -1934 0
1935 1936 0
-1935 -1936 0
1937 1938 0
-1937 -1938 0
1939 1940 0
-1939 -1940 0
1941 1942 0
-1941 -1942 0
1943 1944 0
-1943 -1944 0
1945 1946 0
-1945 -1946 0
1947 1948 0
-1947 -1948 0
1949 1950 0
-1949 -1950 0
1951 1952 0
-1951 -1952 0
1953 1954 0
-1953 -1954 0
1955 1956 0
-1955 -1956 0
1957 1958 0
-1957 -1958 0
1959 1960 0
-1959 -1960 0
1961 1962 0
-1961 -1962 0
1963 1964 0
-1963 -1964 0
1965 1966 0
-1965 -1966 0
1967 1968 0
-1967 -1968 0
1969 1970 0
-1969 -1970 0
1971 1972 0
-1971 -1972 0
1973 1974 0
-1973 -1974 0
1975 1976 0
-1975 -1976 0
1977 1978 0
-1977 -1978 0
1979 1980 0
-1979 -1980 0
1981 1982 0
-1981 -1982 0
1983 1984 0
-1983 -1984 0
1985 1986 0
-1985 -1986 0
1987 1988 0
-1987 -1988 0
1989 1990 0
-1989 -1990 0
1991 1992 0
-1991 -1992 0
1993 1994 0
-1993 -1994 0
1995 1996 0
-1995 -1996 0
1997 1998 0
-1997 -1998 0
1999 2000 0
-1999 -2000 0
2001 2002 0
-2001 -2002 0
2003 2004 0
-2003 -2004 0
2005 2006 0
-2005 -2006 0
2007 2008 0
-2007 -2008 0
2009 2010 0
-2009 -2010 0
2011 2012 0
-2011 -2012 0
2013 2014 0
-2013 -2014 0
2015 2016 0
-2015 -2016 0
2017 2018 0
-2017 -2018 0
2019 2020 0
-2019 -2020 0
2021 2022 0
-2021 -2022 0
2023 2024 0
-2023 -2024 0
2025 2026 0
-2025 -2026 0
2027 2028 0
-2027 -2028 0
2029 2030 0
-2029 -2030 0
2031 2032 0
-2031 -2032 0
2033 2034 0
-2033 -2034 0
2035 2036 0
-2035 -2036 0
2037 2038 0
-2037 -2038 0
2039 2040 0
-2039 -2040 0
2041 2042 0
-2041 -2042 0
2043 2044 0
-2043 -2044 0
2045 2046 0
-2045 -2046 0
2047 2048 0
-2047 -2048 0
2049 2050 0
-2049 -2050 0
2051 2052 0
-2051 -2052 0
2053 2054 0
-2053 -2054 0
2055 2056 0
-2055 -2056 0
2057 2058 0
-2057 -2058 0
2059 2060 0
-2059 -2060 0
2061 2062 0
-2061 -2062 0
2063 2064 0
-2063 -2064 0
2065 2066 0
-2065 -2066 0
2067 2068 0
-2067 -2068 0
2069 2070 0
-2069 -2070 0
2071 2072 0
-2071 -2072 0
2073 2074 0
-2073 -2074 0
2075 2076 0
-2075 -2076 0
2077 2078 0
-2077 -2078 0
2079 2080 0
-2079 -2080 0
2081 2082 0
-2081 -2082 0
2083 2084 0
-2083 -2084 0
2085 2086 0
-2085 -2086 0
2087 2088 0
-2087 -2088 0
2089 2090 0
-2089 -2090 0
2091 2092 0
-2091 -2092 0
2093 2094 0
-2093 -2094 0
2095 2096 0
-2095 -2096 0
2097 2098 0
-2097 -2098 0
2099 2100 0
-2099 -2100 0
2101 2102 0
-2101 -2102 0
2103 2104 0
-2103 -2104 0
2105 2106 0
-2105 -2106 0
2107 2108 0
-2107 -2108 0
2109 2110 0
-2109 -2110 0
2111 2112 0
-2111 -2112 0
2113 2114 0
-2113 -2114 0
2115 2116 0
-2115 -2116 0
2117 2118 0
-2117 -2118 0
2119 2120 0
-2119 -2120 0
2121 2122 0
-2121 -2122 0
2123 2124 0
-2123 -2124 0
2125 2126 0
-2125 -2126 0
2127 2128 0
-2127 -2128 0
2129 2130 0
-2129 -2130 0
2131 2132 0
-2131 -2132 0
2133 2134 0
-2133 -2134 0
2135 2136 0
-2135 -2136 0
2137 2138 0
-2137 -2138 0
2139 2140 0
-2139 -2140 0
2141 2142 0
-2141 -2142 0
2143 2144 0
-2143 -2144 0
2145 2146 0
-2145 -2146 0
2147 2148 0
-2147 -2148 0
2149 2150 0
-2149 -2150 0
2151 2152 0
-2151 -2152 0
2153 2154 0
-2153 -2154 0
2155 2156 0
-2155 -2156 0
2157 2158 0
-2157 -2158 0
2159 2160 0
-2159 -2160 0
2161 2162 0
-2161 -2162 0
2163 2164 0
-2163 -2164 0
2165 2166 0
-2165 -2166 0
2167 2168 0
-2167 -2168 0
2169 2170 0
-2169 -2170 0
2171 2172 0
-2171 -2172 0
2173 2174 0
-2173 -2174 0
2175 2176 0
-2175 -2176 0
2177 2178 0
-2177 -2178 0
2179 2180 0
-2179 -2180 0
2181 2182 0
-2181 -2182 0
2183 2184 0
-2183 -2184 0
2185 2186 0
-2185 -2186 0
2187 2188 0
-2187 -2188 0
2189 2190 0
-2189 -2190 0
2191 2192 0
-2191 -2192 0
2193 2194 0
-2193 -2194 0
2195 2196 0
-2195 -2196 0
2197 2198 0
-2197 -2198 0
2199 2200 0
-2199 -2200 0
2201 2202 0
-2201 -2202 0
2203 2204 0
-2203 -2204 0
2205 2206 0
-2205 -2206 0
2207 2208 0
-2207 -2208 0
2209 2210 0
-2209 -2210 0
2211 2212 0
-2211 -2212 0
2213 2214 0
-2213 -2214 0
2215 2216 0
-2215 -2216 0
2217 2218 0
-2217 -2218 0
2219 2220 0
-2219 -2220 0
2221 2222 0
-2221 -2222 0
2223 2224 0
-2223 -2224 0
2225 2226 0
-2225 -2226 0
2227 2228 0
-2227 -2228 0
2229 2230 0
-2229 -2230 0
2231 2232 0
-2231 -2232 0
2233 2234 0
-2233 -2234 0
2235 2236 0
-2235 -2236 0
2237 2238 0
-2237 -2238 0
2239 2240 0
-2239 -2240 0
2241 2242 0
-2241 -2242 0
2243 2244 0
-2243 -2244 0
2245 2246 0
-2245 -2246 0
2247 2248 0
-2247 -2248 0
2249 2250 0
-2249 -2250 0
2251 2252 0
-2251 -2252 0
2253 2254 0
-2253 -2254 0
2255 2256 0
-2255 -2256 0
2257 2258 0
-2257 -2258 0
2259 2260 0
-2259 -2260 0
2261 2262 0
-2261 -2262 0
2263 2264 0
-2263 -2264 0
2265 2266 0
-2265 -2266 0
2267 2268 0
-2267 -2268 0
2269 2270 0
-2269 -2270 0
2271 2272 0
-2271 -2272 0
2273 2274 0
-2273 -2274 0
2275 2276 0
-2275 -2276 0
2277 2278 0
-2277 -2278 0
2279 2280 0
-2279 -2280 0
2281 2282 0
-2281 -2282 0
2283 2284 0
-2283 -2284 0
2285 2286 0
-2285 -2286 0
2287 2288 0
-2287 -2288 0
2289 2290 0
-2289 -2290 0
2291 2292 0
-2291 -2292 0
2293 2294 0
-2293 -2294 0
2295 2296 0
-2295 -2296 0
2297 2298 0
-2297 -2298 0
2299 2300 0
-2299 -2300 0
2301 2302 0
-2301 -2302 0
2303 2304 0
-2303 -2304 0
2305 2306 0
-2305 -2306 0
2307 2308 0
-2307 -2308 0
2309 2310 0
-2309 -2310 0
2311 2312 0
-2311 -2312 0
2313 2314 0
-2313 -2314 0
2315 2316 0
-2315 -2316 0
2317 2318 0
-2317 -2318 0
2319 2320 0
-2319 -2320 0
2321 2322 0
-2321 -2322 0
2323 2324 0
-2323 -2324 0
2325 2326 0
-2325 -2326 0
2327 2328 0
-2327 -2328 0
2329 2330 0
-2329 -2330 0
2331 2332 0
-2331 -2332 0
2333 2334 0
-2333 -2334 0
2335 2336 0
-2335 -2336 0
2337 2338 0
-2337 -2338 0
2339 2340 0
-2339 -2340 0
2341 2342 0
-2341 -2342 0
2343 2344 0
-2343 -2344 0
2345 2346 0
-2345 -2346 0
2347 2348 0
-2347 -2348 0
2349 2350 0
-2349 -2350 0
2351 2352 0
-2351 -2352 0
2353 2354 0
-2353 -2354 0
2355 2356 0
-2355 -2356 0
2357 2358 0
-2357 -2358 0
2359 2360 0
-2359 -2360 0
2361 2362 0
-2361 -2362 0
2363 2364 0
-2363 -2364 0
2365 2366 0
-2365 -2366 0
2367 2368 0
-2367 -2368 0
2369 2370 0
-2369 -2370 0
2371 2372 0
-2371 -2372 0
2373 2374 0
-2373 -2374 0
2375 2376 0
-2375 -2376 0
2377 2378 0
-2377 -2378 0
2379 2380 0
-2379 -2380 0
2381 2382 0
-2381 -2382 0
2383 2384 0
-2383 -2384 0
2385 2386 0
-2385 -2386 0
2387 2388 0
-2387 -2388 0
2389 2390 0
-2389 -2390 0
2391 2392 0
-2391 -2392 0
2393 2394 0
-2393 -2394 0
2395 2396 0
-2395 -2396 0
2397 2398 0
-2397 -2398 0
2399 2400 0
-2399 -2400 0
2401 2402 0
-2401 -2402 0
2403 2404 0
-2403 -2404 0
2405 2406 0
-2405 -2406 0
2407 2408 0
-2407 -2408 0
2409 2410 0
-2409 -2410 0
2411 2412 0
-2411 -2412 0
2413 2414 0
-2413 -2414 0
2415 2416 0
-2415 -2416 0
2417 2418 0
-2417 -2418 0
2419 2420 0
-2419 -2420 0
2421 2422 0
-2421 -2422 0
2423 2424 0
-2423 -2424 0
2425 2426 0
-2425 -2426 0
2427 2428 0
-2427 -2428 0
2429 2430 0
-2429 -2430 0
2431 2432 0
-2431 -2432 0
2433 2434 0
-2433 -2434 0
2435 2436 0
-2435 -2436 0
2437 2438 0
-2437 -2438 0
2439 2440 0
-2439 -2440 0
2441 2442 0
-2441 -2442 0
2443 2444 0
-2443 -2444 0
2445 2446 0
-2445 -2446 0
2447 2448 0
-2447 -2448 0
2449 2450 0
-2449 -2450 0
2451 2452 0
-2451 -2452 0
2453 2454 0
-2453 -2454 0
2455 2456 0
-2455 -2456 0
2457 2458 0
-2457 -2458 0
2459 2460 0
-2459 -2460 0
2461 2462 0
-2461 -2462 0
2463 2464 0
-2463 -2464 0
2465 2466 0
-2465 -2466 0
2467 2468 0
-2467 -2468 0
2469 2470 0
-2469 -2470 0
2471 2472 0
-2471 -2472 0
2473 2474 0
-2473 -2474 0
2475 2476 0
-2475 -2476 0
2477 2478 0
-2477 -2478 0
2479 2480 0
-2479 -2480 0
2481 2482 0
-2481 -2482 0
2483 2484 0
-2483 -2484 0
2485 2486 0
-2485 -2486 0
2487 2488 0
-2487 -2488 0
2489 2490 0
-2489 -2490 0
2491 2492 0
-2491 -2492 0
2493 2494 0
-2493 -2494 0
2495 2496 0
-2495 -2496 0
2497 2498 0
-2497 -2498 0
2499 2500 0
-2499 -2500 0
2501 2502 0
-2501 -2502 0
2503 2504 0
-2503 -2504 0
2505 2506 0
-2505 -2506 0
2507 2508 0
-2507 -2508 0
2509 2510 0
-2509 -2510 0
2511 2512 0
-2511 -2512 0
2513 2514 0
-2513 -2514 0
2515 2516 0
-2515 -2516 0
2517 2518 0
-2517 -2518 0
2519 2520 0
-2519 -2520 0
2521 2522 0
-2521 -2522 0
2523 2524 0
-2523 -2524 0
2525 2526 0
-2525 -2526 0
2527 2528 0
-2527 -2528 0
2529 2530 0
-2529 -2530 0
2531 2532 0
-2531 -2532 0
2533 2534 0
-2533 -2534 0
2535 2536 0
-2535 -2536 0
2537 2538 0
-2537 -2538 0
2539 2540 0
-2539 -2540 0
2541 2542 0
-2541 -2542 0
2543 2544 0
-2543 -2544 0
2545 2546 0
-2545 -2546 0
2547 2548 0
-2547 -2548 0
2549 2550 0
-2549 -2550 0
2551 2552 0
-2551 -2552 0
2553 2554 0
-2553 -2554 0
2555 2556 0
-2555 -2556 0
2557 2558 0
-2557 -2558 0
2559 2560 0
-2559 -2560 0
2561 2562 0
-2561 -2562 0
2563 2564 0
-2563 -2564 0
2565 2566 0
-2565 -2566 0
2567 2568 0
-2567 -2568 0
2569 2570 0
-2569 -2570 0
2571 2572 0
-2571 -2572 0
2573 2574 0
-2573 -2574 0
2575 2576 0
-2575 -2576 0
2577 2578 0
-2577 -2578 0
2579 2580 0
-2579 -2580 0
2581 2582 0
-2581 -2582 0
2583 2584 0
-2583 -2584 0
2585 2586 0
-2585 -2586 0
2587 2588 0
-2587 -2588 0
2589 2590 0
-2589 -2590 0
2591 2592 0
-2591 -2592 0
2593 2594 0
-2593 -2594 0
2595 2596 0
-2595 -2596 0
2597 2598 0
-2597 -2598 0
2599 2600 0
-2599 -2600 0
2601 2602 0
-2601 -2602 0
2603 2604 0
-2603 -2604 0
2605 2606 0
-2605 -2606 0
2607 2608 0
-2607 -2608 0
2609 2610 0
-2609 -2610 0
2611 2612 0
-2611 -2612 0
2613 2614 0
-2613 -2614 0
2615 2616 0
-2615 -2616 0
2617 2618 0
-2617 -2618 0
2619 2620 0
-2619 -2620 0
2621 2622 0
-2621 -2622 0
2623 2624 0
-2623 -2624 0
2625 2626 0
-2625 -2626 0
2627 2628 0
-2627 -2628 0
2629 2630 0
-2629 -2630 0
2631 2632 0
-2631 -2632 0
2633 2634 0
-2633 -2634 0
2635 2636 0
-2635 -2636 0
2637 2638 0
-2637 -2638 0
2639 2640 0
-2639 -2640 0
2641 2642 0
-2641 -2642 0
2643 2644 0
-2643 -2644 0
2645 2646 0
-2645 -2646 0
2647 2648 0
-2647 -2648 0
2649 2650 0
-2649 -2650 0
2651 2652 0
-2651 -2652 0
2653 2654 0
-2653 -2654 0
2655 2656 0
-2655 -2656 0
2657 2658 0
-2657 -2658 0
2659 2660 0
-2659 -2660 0
2661 2662 0
-2661 -2662 0
2663 2664 0
-2663 -2664 0
2665 2666 0
-2665 -2666 0
2667 2668 0
-2667 -2668 0
2669 2670 0
-2669 -2670 0
2671 2672 0
-2671 -2672 0
2673 2674 0
-2673 -2674 0
2675 2676 0
-2675 -2676 0
2677 2678 0
-2677 -2678 0
2679 2680 0
-2679 -2680 0
2681 2682 0
-2681 -2682 0
2683 2684 0
-2683 -2684 0
2685 2686 0
-2685 -2686 0
2687 2688 0
-2687 -2688 0
2689 2690 0
-2689 -2690 0
2691 2692 0
-2691 -2692 0
2693 2694 0
-2693 -2694 0
2695 2696 0
-2695 -2696 0
2697 2698 0
-2697 -2698 0
2699 2700 0
-2699 -2700 0
2701 2702 0
-2701 -2702 0
2703 2704 0
-2703 -2704 0
2705 2706 0
-2705 -2706 0
2707 2708 0
-2707 -2708 0
2709 2710 0
-2709 -2710 0
2711 2712 0
-2711 -2712 0
2713 2714 0
-2713 -2714 0
2715 2716 0
-2715 -2716 0
2717 2718 0
-2717 -2718 0
2719 2720 0
-2719 -2720 0
2721 2722 0
-2721 -2722 0
2723 2724 0
-2723 -2724 0
2725 2726 0
-2725 -2726 0
2727 2728 0
-2727 -2728 0
2729 2730 0
-2729 -2730 0
2731 2732 0
-2731 -2732 0
2733 2734 0
-2733 -2734 0
2735 2736 0
-2735 -2736 0
2737 2738 0
-2737 -2738 0
2739 2740 0
-2739 -2740 0
2741 2742 0
-2741 -2742 0
2743 2744 0
-2743 -2744 0
2745 2746 0
-2745 -2746 0
2747 2748 0
-2747 -2748 0
2749 2750 0
-2749 -2750 0
2751 2752 0
-2751 -2752 0
2753 2754 0
-2753 -2754 0
2755 2756 0
-2755 -2756 0
2757 2758 0
-2757 -2758 0
2759 2760 0
-2759 -2760 0
2761 2762 0
-2761 -2762 0
2763 2764 0
-2763 -2764 0
2765 2766 0
-2765 -2766 0
2767 2768 0
-2767 -2768 0
2769 2770 0
-2769 -2770 0
2771 2772 0
-2771 -2772 0
2773 2774 0
-2773 -2774 0
2775 2776 0
-2775 -2776 0
2777 2778 0
-2777 -2778 0
2779 2780 0
-2779 -2780 0
2781 2782 0
-2781 -2782 0
2783 2784 0
-2783 -2784 0
2785 2786 0
-2785 -2786 0
2787 2788 0
-2787 -2788 0
2789 2790 0
-2789 -2790 0
2791 2792 0
-2791 -2792 0
2793 2794 0
-2793 -2794 0
2795 2796 0
-2795 -2796 0
2797 2798 0
-2797 -2798 0
2799 2800 0
-2799 -2800 0
2801 2802 0
-2801 -2802 0
2803 2804 0
-2803 -2804 0
2805 2806 0
-2805 -2806 0
2807 2808 0
-2807 -2808 0
2809 2810 0
-2809 -2810 0
2811 2812 0
-2811 -2812 0
2813 2814 0
-2813 -2814 0
2815 2816 0
-2815 -2816 0
2817 2818 0
-2817 -2818 0
2819 2820 0
-2819 -2820 0
2821 2822 0
-2821 -2822 0
2823 2824 0
-2823 -2824 0
2825 2826 0
-2825 -2826 0
2827 2828 0
-2827 -2828 0
2829 2830 0
-2829 -2830 0
2831 2832 0
-2831 -2832 0
2833 2834 0
-2833 -2834 0
2835 2836 0
-2835 -2836 0
2837 2838 0
-2837 -2838 0
2839 2840 0
-2839 -2840 0
2841 2842 0
-2841 -2842 0
2843 2844 0
-2843 -2844 0
2845 2846 0
-2845 -2846 0
2847 2848 0
-2847 -2848 0
2849 2850 0
-2849 -2850 0
2851 2852 0
-2851 -2852 0
2853 2854 0
-2853 -2854 0
2855 2856 0
-2855 -2856 0
2857 2858 0
-2857 -2858 0
2859 2860 0
-2859 -2860 0
2861 2862 0
-2861 -2862 0
2863 2864 0
-2863 -2864 0
2865 2866 0
-2865 -2866 0
2867 2868 0
-2867 -2868 0
2869 2870 0
-2869 -2870 0
2871 2872 0
-2871 -2872 0
2873 2874 0
-2873 -2874 0
2875 2876 0
-2875 -2876 0
2877 2878 0
-2877 -2878 0
2879 2880 0
-2879 -2880 0
2881 2882 0
-2881 -2882 0
2883 2884 0
-2883 -2884 0
2885 2886 0
-2885 -2886 0
2887 2888 0
-2887 -2888 0
2889 2890 0
-2889 -2890 0
2891 2892 0
-2891 -2892 0
2893 2894 0
-2893 -2894 0
2895 2896 0
-2895 -2896 0
2897 2898 0
-2897 -2898 0
2899 2900 0
-2899 -2900 0
2901 2902 0
-2901 -2902 0
2903 2904 0
-2903 -2904 0
2905 2906 0
-2905 -2906 0
2907 2908 0
-2907 -2908 0
2909 2910 0
-2909 -2910 0
2911 2912 0
-2911 -2912 0
2913 2914 0
-2913 -2914 0
2915 2916 0
-2915 -2916 0
2917 2918 0
-2917 -2918 0
2919 2920 0
-2919 -2920 0
2921 2922 0
-2921 -2922 0
2923 2924 0
-2923 -2924 0
2925 2926 0
-2925 -2926 0
2927 2928 0
-2927 -2928 0
2929 2930 0
-2929 -2930 0
2931 2932 0
-2931 -2932 0
2933 2934 0
-2933 -2934 0
2935 2936 0
-2935 -2936 0
2937 2938 0
-2937 -2938 0
2939 2940 0
-2939 -2940 0
2941 2942 0
-2941 -2942 0
2943 2944 0
-2943 -2944 0
2945 2946 0
-2945 -2946 0
2947 2948 0
-2947 -2948 0
2949 2950 0
-2949 -2950 0
2951 2952 0
-2951 -2952 0
2953 2954 0
-2953 -2954 0
2955 2956 0
-2955 -2956 0
2957 2958 0
-2957 -2958 0
2959 2960 0
-2959 -2960 0
2961 2962 0
-2961 -2962 0
2963 2964 0
-2963 -2964 0
2965 2966 0
-2965 -2966 0
2967 2968 0
-2967 -2968 0
2969 2970 0
-2969 -2970 0
2971 2972 0
-2971 -2972 0
2973 2974 0
-2973 -2974 0
2975 2976 0
-2975 -2976 0
2977 2978 0
-2977 -2978 0
2979 2980 0
-2979 -2980 0
2981 2982 0
-2981 -2982 0
2983 2984 0
-2983 -2984 0
2985 2986 0
-2985 -2986 0
2987 2988 0
-2987 -2988 0
2989 2990 0
-2989 -2990 0
2991 2992 0
-2991 -2992 0
2993 2994 0
-2993 -2994 0
2995 2996 0
-2995 -2996 0
2997 2998 0
-2997 -2998 0
2999 3000 0
-2999 -3000 0
3001 3002 0
-3001 -3002 0
3003 3004 0
-3003 -3004 0
3005 3006 0
-3005 -3006 0
3007 3008 0
-3007 -3008 0
3009 3010 0
-3009 -3010 0
3011 3012 0
-3011 -3012 0
3013 3014 0
-3013 -3014 0
3015 3016 0
-3015 -3016 0
3017 3018 0
-3017 -3018 0
3019 3020 0
-3019 -3020 0
3021 3022 0
-3021 -3022 0
3023 3024 0
-3023 -3024 0
3025 3026 0
-3025 -3026 0
3027 3028 0
-3027 -3028 0
3029 3030 0
-3029 -3030 0
3031 3032 0
-3031 -3032 0
3033 3034 0
-3033 -3034 0
3035 3036 0
-3035 -3036 0
3037 3038 0
-3037 -3038 0
3039 3040 0
-3039 -3040 0
3041 3042 0
-3041 -3042 0
3043 3044 0
-3043 -3044 0
3045 3046 0
-3045 -3046 0
3047 3048 0
-3047 -3048 0
3049 3050 0
-3049 -3050 0
3051 3052 0
-3051 -3052 0
3053 3054 0
-3053 -3054 0
3055 3056 0
-3055 -3056 0
3057 3058 0
-3057 -3058 0
3059 3060 0
-3059 -3060 0
3061 3062 0
-3061 -3062 0
3063 3064 0
-3063 -3064 0
3065 3066 0
-3065 -3066 0
3067 3068 0
-3067 -3068 0
3069 3070 0
-3069 -3070 0
3071 3072 0
-3071 -3072 0
3073 3074 0
-3073 -3074 0
3075 3076 0
-3075 -3076 0
3077 3078 0
-3077 -3078 0
3079 3080 0
-3079 -3080 0
3081 3082 0
-3081 -3082 0
3083 3084 0
-3083 -3084 0
3085 3086 0
-3085 -3086 0
3087 3088 0
-3087 -3088 0
3089 3090 0
-3089 -3090 0
3091 3092 0
-3091 -3092 0
3093 3094 0
-3093 -3094 0
3095 3096 0
-3095 -3096 0
3097 3098 0
-3097 -3098 0
3099 3100 0
-3099 -3100 0
3101 3102 0
-3101 -3102 0
3103 3104 0
-3103 -3104 0
3105 3106 0
-3105 -3106 0
3107 3108 0
-3107 -3108 0
3109 3110 0
-3109 -3110 0
3111 3112 0
-3111 -3112 0
3113 3114 0
-3113 -3114 0
3115 3116 0
-3115 -3116 0
3117 3118 0
-3117 -3118 0
3119 3120 0
-3119 -3120 0
3121 3122 0
-3121 -3122 0
3123 3124 0
-3123 -3124 0
3125 3126 0
-3125 -3126 0
3127 3128 0
-3127 -3128 0
3129 3130 0
-3129 -3130 0
3131 3132 0
-3131 -3132 0
3133 3134 0
-3133 -3134 0
3135 3136 0
-3135 -3136 0
3137 3138 0
-3137 -3138 0
3139 3140 0
-3139 -3140 0
3141 3142 0
-3141 -3142 0
3143 3144 0
-3143 -3144 0
3145 3146 0
-3145 -3146 0
3147 3148 0
-3147 -3148 0
3149 3150 0
-3149 -3150 0
3151 3152 0
-3151 -3152 0
3153 3154 0
-3153 -3154 0
3155 3156 0
-3155 -3156 0
3157 3158 0
-3157 -3158 0
3159 3160 0
-3159 -3160 0
3161 3162 0
-3161 -3162 0
3163 3164 0
-3163 -3164 0
3165 3166 0
-3165 -3166 0
3167 3168 0
-3167 -3168 0
3169 3170 0
-3169 -3170 0
3171 3172 0
-3171 -3172 0
3173 3174 0
-3173 -3174 0
3175 3176 0
-3175 -3176 0
3177 3178 0
-3177 -3178 0
3179 3180 0
-3179 -3180 0
3181 3182 0
-3181 -3182 0
3183 3184 0
-3183 -3184 0
3185 3186 0
-3185 -3186 0
3187 3188 0
-3187 -3188 0
3189 3190 0
-3189 -3190 0
3191 3192 0
-3191 -3192 0
3193 3194 0
-3193 -3194 0
3195 3196 0
-3195 -3196 0
3197 3198 0
-3197 -3198 0
3199 3200 0
-3199 -3200 0
3201 3202 0
-3201 -3202 0
3203 3204 0
-3203 -3204 0
3205 3206 0
-3205 -3206 0
3207 3208 0
-3207 -3208 0
3209 3210 0
-3209 -3210 0
3211 3212 0
-3211 -3212 0
3213 3214 0
-3213 -3214 0
3215 3216 0
-3215 -3216 0
3217 3218 0
-3217 -3218 0
3219 3220 0
-3219 -3220 0
3221 3222 0
-3221 -3222 0
3223 3224 0
-3223 -3224 0
3225 3226 0
-3225 -3226 0
3227 3228 0
-3227 -3228 0
3229 3230 0
-3229 -3230 0
3231 3232 0
-3231 -3232 0
3233 3234 0
-3233 -3234 0
3235 3236 0
-3235 -3236 0
3237 3238 0
-3237 -3238 0
3239 3240 0
-3239 -3240 0
3241 3242 0
-3241 -3242 0
3243 3244 0
-3243 -3244 0
3245 3246 0
-3245 -3246 0
3247 3248 0
-3247 -3248 0
3249 3250 0
-3249 -3250 0
3251 3252 0
-3251 -3252 0
3253 3254 0
-3253 -3254 0
3255 3256 0
-3255 -3256 0
3257 3258 0
-3257 -3258 0
3259 3260 0
-3259 -3260 0
3261 3262 0
-3261 -3262 0
3263 3264 0
-3263 -3264 0
3265 3266 0
-3265 -3266 0
3267 3268 0
-3267 -3268 0
3269 3270 0
-3269 -3270 0
3271 3272 0
-3271 -3272 0
3273 3274 0
-3273 -3274 0
3275 3276 0
-3275 -3276 0
3277 3278 0
-3277 -3278 0
3279 3280 0
-3279 -3280 0
3281 3282 0
-3281 -3282 0
3283 3284 0
-3283 -3284 0
3285 3286 0
-3285 -3286 0
3287 3288 0
-3287 -3288 0
3289 3290 0
-3289 -3290 0
3291 3292 0
-3291 -3292 0
3293 3294 0
-3293 -3294 0
3295 3296 0
-3295 -3296 0
3297 3298 0
-3297 -3298 0
3299 3300 0
-3299 -3300 0
3301 3302 0
-3301 -3302 0
3303 3304 0
-3303 -3304 0
3305 3306 0
-3305 -3306 0
3307 3308 0
-3307 -3308 0
3309 3310 0
-3309 -3310 0
3311 3312 0
-3311 -3312 0
3313 3314 0
-3313 -3314 0
3315 3316 0
-3315 -3316 0
3317 3318 0
-3317 -3318 0
3319 3320 0
-3319 -3320 0
3321 3322 0
-3321 -3322 0
3323 3324 0
-3323 -3324 0
3325 3326 0
-3325 -3326 0
3327 3328 0
-3327 -3328 0
3329 3330 0
-3329 -3330 0
3331 3332 0
-3331 -3332 0
3333 3334 0
-3333 -3334 0
3335 3336 0
-3335 -3336 0
3337 3338 0
-3337 -3338 0
3339 3340 0
-3339 -3340 0
3341 3342 0
-3341 -3342 0
3343 3344 0
-3343 -3344 0
3345 3346 0
-3345 -3346 0
3347 3348 0
-3347 -3348 0
3349 3350 0
-3349 -3350 0
3351 3352 0
-3351 -3352 0
3353 3354 0
-3353 -3354 0
3355 3356 0
-3355 -3356 0
3357 3358 0
-3357 -3358 0
3359 3360 0
-3359 -3360 0
3361 3362 0
-3361 -3362 0
3363 3364 0
-3363 -3364 0
3365 3366 0
-3365 -3366 0
3367 3368 0
-3367 -3368 0
3369 3370 0
-3369 -3370 0
3371 3372 0
-3371 -3372 0
3373 3374 0
-3373 -3374 0
3375 3376 0
-3375 -3376 0
3377 3378 0
-3377 -3378 0
3379 3380 0
-3379 -3380 0
3381 3382 0
-3381 -3382 0
3383 3384 0
-3383 -3384 0
3385 3386 0
-3385 -3386 0
3387 3388 0
-3387 -3388 0
3389 3390 0
-3389 -3390 0
3391 3392 0
-3391 -3392 0
3393 3394 0
-3393 -3394 0
3395 3396 0
-3395 -3396 0
3397 3398 0
-3397 -3398 0
3399 3400 0
-3399 -3400 0
3401 3402 0
-3401 -3402 0
3403 3404 0
-3403 -3404 0
3405 3406 0
-3405 -3406 0
3407 3408 0
-3407 -3408 0
3409 3410 0
-3409 -3410 0
3411 3412 0
-3411 -3412 0
3413 3414 0
-3413 -3414 0
3415 3416 0
-3415 -3416 0
3417 3418 0
-3417 -3418 0
3419 3420 0
-3419 -3420 0
3421 3422 0
-3421 -3422 0
3423 3424 0
-3423 -3424 0
3425 3426 0
-3425 -3426 0
3427 3428 0
-3427 -3428 0
3429 3430 0
-3429 -3430 0
