p cnf 1360 2801
1 3 5 0
1 3 7 0
1 5 7 0
3 5 7 0
1 4 6 8 0
3 2 6 8 0
5 2 4 8 0
7 2 4 6 0
1 9 11 0
1 9 13 0
1 11 13 0
9 11 13 0
1 10 12 14 0
9 2 12 14 0
11 2 10 14 0
13 2 10 12 0
3 9 15 0
3 9 17 0
3 15 17 0
9 15 17 0
3 10 16 18 0
9 4 16 18 0
15 4 10 18 0
17 4 10 16 0
5 11 15 0
5 11 19 0
5 15 19 0
11 15 19 0
5 12 16 20 0
11 6 16 20 0
15 6 12 20 0
19 6 12 16 0
7 13 17 0
7 13 19 0
7 17 19 0
13 17 19 0
7 14 18 20 0
13 8 18 20 0
17 8 14 20 0
19 8 14 18 0
1 21 23 0
1 21 25 0
1 23 25 0
21 23 25 0
1 22 24 26 0
21 2 24 26 0
23 2 22 26 0
25 2 22 24 0
3 21 27 0
3 21 29 0
3 27 29 0
21 27 29 0
3 22 28 30 0
21 4 28 30 0
27 4 22 30 0
29 4 22 28 0
5 23 27 0
5 23 31 0
5 27 31 0
23 27 31 0
5 24 28 32 0
23 6 28 32 0
27 6 24 32 0
31 6 24 28 0
7 25 29 0
7 25 31 0
7 29 31 0
25 29 31 0
7 26 30 32 0
25 8 30 32 0
29 8 26 32 0
31 8 26 30 0
9 21 33 0
9 21 35 0
9 33 35 0
21 33 35 0
9 22 34 36 0
21 10 34 36 0
33 10 22 36 0
35 10 22 34 0
11 23 33 0
11 23 37 0
11 33 37 0
23 33 37 0
11 24 34 38 0
23 12 34 38 0
33 12 24 38 0
37 12 24 34 0
13 25 35 0
13 25 37 0
13 35 37 0
25 35 37 0
13 26 36 38 0
25 14 36 38 0
35 14 26 38 0
37 14 26 36 0
15 27 33 0
15 27 39 0
15 33 39 0
27 33 39 0
15 28 34 40 0
27 16 34 40 0
33 16 28 40 0
39 16 28 34 0
17 29 35 0
17 29 39 0
17 35 39 0
29 35 39 0
17 30 36 40 0
29 18 36 40 0
35 18 30 40 0
39 18 30 36 0
19 31 37 0
19 31 39 0
19 37 39 0
31 37 39 0
19 32 38 40 0
31 20 38 40 0
37 20 32 40 0
39 20 32 38 0
1 42 0
3 54 0
5 66 0
7 78 0
9 90 0
11 102 0
13 114 0
15 126 0
17 138 0
19 150 0
41 54 0
43 56 0
45 58 0
47 60 0
49 62 0
51 64 0
53 66 0
55 68 0
57 70 0
59 72 0
61 74 0
63 76 0
65 78 0
67 80 0
69 82 0
71 84 0
73 86 0
75 88 0
77 90 0
79 92 0
81 94 0
83 96 0
85 98 0
87 100 0
89 102 0
91 104 0
93 106 0
95 108 0
97 110 0
99 112 0
101 114 0
103 116 0
105 118 0
107 120 0
109 122 0
111 124 0
113 126 0
115 128 0
117 130 0
119 132 0
121 134 0
123 136 0
125 138 0
127 140 0
129 142 0
131 144 0
133 146 0
135 148 0
137 150 0
139 152 0
141 154 0
143 156 0
145 158 0
147 160 0
3 41 56 0
3 43 58 0
3 45 60 0
3 47 62 0
3 49 64 0
5 53 68 0
5 55 70 0
5 57 72 0
5 59 74 0
5 61 76 0
7 65 80 0
7 67 82 0
7 69 84 0
7 71 86 0
7 73 88 0
9 77 92 0
9 79 94 0
9 81 96 0
9 83 98 0
9 85 100 0
11 89 104 0
11 91 106 0
11 93 108 0
11 95 110 0
11 97 112 0
13 101 116 0
13 103 118 0
13 105 120 0
13 107 122 0
13 109 124 0
15 113 128 0
15 115 130 0
15 117 132 0
15 119 134 0
15 121 136 0
17 125 140 0
17 127 142 0
17 129 144 0
17 131 146 0
17 133 148 0
19 137 152 0
19 139 154 0
19 141 156 0
19 143 158 0
19 145 160 0
3 51 0
5 63 0
7 75 0
9 87 0
11 99 0
13 111 0
15 123 0
17 135 0
19 147 0
162 2 0
161 1 0
164 4 0
163 3 0
166 6 0
165 5 0
168 8 0
167 7 0
170 10 0
169 9 0
172 12 0
171 11 0
174 14 0
173 13 0
176 16 0
175 15 0
178 18 0
177 17 0
180 20 0
179 19 0
161 182 0
163 190 0
165 198 0
167 206 0
169 214 0
171 222 0
173 230 0
175 238 0
177 246 0
179 254 0
181 190 0
183 192 0
185 194 0
187 196 0
189 198 0
191 200 0
193 202 0
195 204 0
197 206 0
199 208 0
201 210 0
203 212 0
205 214 0
207 216 0
209 218 0
211 220 0
213 222 0
215 224 0
217 226 0
219 228 0
221 230 0
223 232 0
225 234 0
227 236 0
229 238 0
231 240 0
233 242 0
235 244 0
237 246 0
239 248 0
241 250 0
243 252 0
245 254 0
247 256 0
249 258 0
251 260 0
163 181 192 0
163 183 194 0
163 185 196 0
165 189 200 0
165 191 202 0
165 193 204 0
167 197 208 0
167 199 210 0
167 201 212 0
169 205 216 0
169 207 218 0
169 209 220 0
171 213 224 0
171 215 226 0
171 217 228 0
173 221 232 0
173 223 234 0
173 225 236 0
175 229 240 0
175 231 242 0
175 233 244 0
177 237 248 0
177 239 250 0
177 241 252 0
179 245 256 0
179 247 258 0
179 249 260 0
163 187 0
165 195 0
167 203 0
169 211 0
171 219 0
173 227 0
175 235 0
177 243 0
179 251 0
1 262 0
3 274 0
5 286 0
7 298 0
21 310 0
23 322 0
25 334 0
27 346 0
29 358 0
31 370 0
261 274 0
263 276 0
265 278 0
267 280 0
269 282 0
271 284 0
273 286 0
275 288 0
277 290 0
279 292 0
281 294 0
283 296 0
285 298 0
287 300 0
289 302 0
291 304 0
293 306 0
295 308 0
297 310 0
299 312 0
301 314 0
303 316 0
305 318 0
307 320 0
309 322 0
311 324 0
313 326 0
315 328 0
317 330 0
319 332 0
321 334 0
323 336 0
325 338 0
327 340 0
329 342 0
331 344 0
333 346 0
335 348 0
337 350 0
339 352 0
341 354 0
343 356 0
345 358 0
347 360 0
349 362 0
351 364 0
353 366 0
355 368 0
357 370 0
359 372 0
361 374 0
363 376 0
365 378 0
367 380 0
3 261 276 0
3 263 278 0
3 265 280 0
3 267 282 0
3 269 284 0
5 273 288 0
5 275 290 0
5 277 292 0
5 279 294 0
5 281 296 0
7 285 300 0
7 287 302 0
7 289 304 0
7 291 306 0
7 293 308 0
21 297 312 0
21 299 314 0
21 301 316 0
21 303 318 0
21 305 320 0
23 309 324 0
23 311 326 0
23 313 328 0
23 315 330 0
23 317 332 0
25 321 336 0
25 323 338 0
25 325 340 0
25 327 342 0
25 329 344 0
27 333 348 0
27 335 350 0
27 337 352 0
27 339 354 0
27 341 356 0
29 345 360 0
29 347 362 0
29 349 364 0
29 351 366 0
29 353 368 0
31 357 372 0
31 359 374 0
31 361 376 0
31 363 378 0
31 365 380 0
3 271 0
5 283 0
7 295 0
21 307 0
23 319 0
25 331 0
27 343 0
29 355 0
31 367 0
382 2 0
381 1 0
384 4 0
383 3 0
386 6 0
385 5 0
388 8 0
387 7 0
390 22 0
389 21 0
392 24 0
391 23 0
394 26 0
393 25 0
396 28 0
395 27 0
398 30 0
397 29 0
400 32 0
399 31 0
381 402 0
383 410 0
385 418 0
387 426 0
389 434 0
391 442 0
393 450 0
395 458 0
397 466 0
399 474 0
401 410 0
403 412 0
405 414 0
407 416 0
409 418 0
411 420 0
413 422 0
415 424 0
417 426 0
419 428 0
421 430 0
423 432 0
425 434 0
427 436 0
429 438 0
431 440 0
433 442 0
435 444 0
437 446 0
439 448 0
441 450 0
443 452 0
445 454 0
447 456 0
449 458 0
451 460 0
453 462 0
455 464 0
457 466 0
459 468 0
461 470 0
463 472 0
465 474 0
467 476 0
469 478 0
471 480 0
383 401 412 0
383 403 414 0
383 405 416 0
385 409 420 0
385 411 422 0
385 413 424 0
387 417 428 0
387 419 430 0
387 421 432 0
389 425 436 0
389 427 438 0
389 429 440 0
391 433 444 0
391 435 446 0
391 437 448 0
393 441 452 0
393 443 454 0
393 445 456 0
395 449 460 0
395 451 462 0
395 453 464 0
397 457 468 0
397 459 470 0
397 461 472 0
399 465 476 0
399 467 478 0
399 469 480 0
383 407 0
385 415 0
387 423 0
389 431 0
391 439 0
393 447 0
395 455 0
397 463 0
399 471 0
1 482 0
9 494 0
11 506 0
13 518 0
21 530 0
23 542 0
25 554 0
33 566 0
35 578 0
37 590 0
481 494 0
483 496 0
485 498 0
487 500 0
489 502 0
491 504 0
493 506 0
495 508 0
497 510 0
499 512 0
501 514 0
503 516 0
505 518 0
507 520 0
509 522 0
511 524 0
513 526 0
515 528 0
517 530 0
519 532 0
521 534 0
523 536 0
525 538 0
527 540 0
529 542 0
531 544 0
533 546 0
535 548 0
537 550 0
539 552 0
541 554 0
543 556 0
545 558 0
547 560 0
549 562 0
551 564 0
553 566 0
555 568 0
557 570 0
559 572 0
561 574 0
563 576 0
565 578 0
567 580 0
569 582 0
571 584 0
573 586 0
575 588 0
577 590 0
579 592 0
581 594 0
583 596 0
585 598 0
587 600 0
9 481 496 0
9 483 498 0
9 485 500 0
9 487 502 0
9 489 504 0
11 493 508 0
11 495 510 0
11 497 512 0
11 499 514 0
11 501 516 0
13 505 520 0
13 507 522 0
13 509 524 0
13 511 526 0
13 513 528 0
21 517 532 0
21 519 534 0
21 521 536 0
21 523 538 0
21 525 540 0
23 529 544 0
23 531 546 0
23 533 548 0
23 535 550 0
23 537 552 0
25 541 556 0
25 543 558 0
25 545 560 0
25 547 562 0
25 549 564 0
33 553 568 0
33 555 570 0
33 557 572 0
33 559 574 0
33 561 576 0
35 565 580 0
35 567 582 0
35 569 584 0
35 571 586 0
35 573 588 0
37 577 592 0
37 579 594 0
37 581 596 0
37 583 598 0
37 585 600 0
9 491 0
11 503 0
13 515 0
21 527 0
23 539 0
25 551 0
33 563 0
35 575 0
37 587 0
602 2 0
601 1 0
604 10 0
603 9 0
606 12 0
605 11 0
608 14 0
607 13 0
610 22 0
609 21 0
612 24 0
611 23 0
614 26 0
613 25 0
616 34 0
615 33 0
618 36 0
617 35 0
620 38 0
619 37 0
601 622 0
603 630 0
605 638 0
607 646 0
609 654 0
611 662 0
613 670 0
615 678 0
617 686 0
619 694 0
621 630 0
623 632 0
625 634 0
627 636 0
629 638 0
631 640 0
633 642 0
635 644 0
637 646 0
639 648 0
641 650 0
643 652 0
645 654 0
647 656 0
649 658 0
651 660 0
653 662 0
655 664 0
657 666 0
659 668 0
661 670 0
663 672 0
665 674 0
667 676 0
669 678 0
671 680 0
673 682 0
675 684 0
677 686 0
679 688 0
681 690 0
683 692 0
685 694 0
687 696 0
689 698 0
691 700 0
603 621 632 0
603 623 634 0
603 625 636 0
605 629 640 0
605 631 642 0
605 633 644 0
607 637 648 0
607 639 650 0
607 641 652 0
609 645 656 0
609 647 658 0
609 649 660 0
611 653 664 0
611 655 666 0
611 657 668 0
613 661 672 0
613 663 674 0
613 665 676 0
615 669 680 0
615 671 682 0
615 673 684 0
617 677 688 0
617 679 690 0
617 681 692 0
619 685 696 0
619 687 698 0
619 689 700 0
603 627 0
605 635 0
607 643 0
609 651 0
611 659 0
613 667 0
615 675 0
617 683 0
619 691 0
3 702 0
9 714 0
15 726 0
17 738 0
21 750 0
27 762 0
29 774 0
33 786 0
35 798 0
39 810 0
701 714 0
703 716 0
705 718 0
707 720 0
709 722 0
711 724 0
713 726 0
715 728 0
717 730 0
719 732 0
721 734 0
723 736 0
725 738 0
727 740 0
729 742 0
731 744 0
733 746 0
735 748 0
737 750 0
739 752 0
741 754 0
743 756 0
745 758 0
747 760 0
749 762 0
751 764 0
753 766 0
755 768 0
757 770 0
759 772 0
761 774 0
763 776 0
765 778 0
767 780 0
769 782 0
771 784 0
773 786 0
775 788 0
777 790 0
779 792 0
781 794 0
783 796 0
785 798 0
787 800 0
789 802 0
791 804 0
793 806 0
795 808 0
797 810 0
799 812 0
801 814 0
803 816 0
805 818 0
807 820 0
9 701 716 0
9 703 718 0
9 705 720 0
9 707 722 0
9 709 724 0
15 713 728 0
15 715 730 0
15 717 732 0
15 719 734 0
15 721 736 0
17 725 740 0
17 727 742 0
17 729 744 0
17 731 746 0
17 733 748 0
21 737 752 0
21 739 754 0
21 741 756 0
21 743 758 0
21 745 760 0
27 749 764 0
27 751 766 0
27 753 768 0
27 755 770 0
27 757 772 0
29 761 776 0
29 763 778 0
29 765 780 0
29 767 782 0
29 769 784 0
33 773 788 0
33 775 790 0
33 777 792 0
33 779 794 0
33 781 796 0
35 785 800 0
35 787 802 0
35 789 804 0
35 791 806 0
35 793 808 0
39 797 812 0
39 799 814 0
39 801 816 0
39 803 818 0
39 805 820 0
9 711 0
15 723 0
17 735 0
21 747 0
27 759 0
29 771 0
33 783 0
35 795 0
39 807 0
822 4 0
821 3 0
824 10 0
823 9 0
826 16 0
825 15 0
828 18 0
827 17 0
830 22 0
829 21 0
832 28 0
831 27 0
834 30 0
833 29 0
836 34 0
835 33 0
838 36 0
837 35 0
840 40 0
839 39 0
821 842 0
823 850 0
825 858 0
827 866 0
829 874 0
831 882 0
833 890 0
835 898 0
837 906 0
839 914 0
841 850 0
843 852 0
845 854 0
847 856 0
849 858 0
851 860 0
853 862 0
855 864 0
857 866 0
859 868 0
861 870 0
863 872 0
865 874 0
867 876 0
869 878 0
871 880 0
873 882 0
875 884 0
877 886 0
879 888 0
881 890 0
883 892 0
885 894 0
887 896 0
889 898 0
891 900 0
893 902 0
895 904 0
897 906 0
899 908 0
901 910 0
903 912 0
905 914 0
907 916 0
909 918 0
911 920 0
823 841 852 0
823 843 854 0
823 845 856 0
825 849 860 0
825 851 862 0
825 853 864 0
827 857 868 0
827 859 870 0
827 861 872 0
829 865 876 0
829 867 878 0
829 869 880 0
831 873 884 0
831 875 886 0
831 877 888 0
833 881 892 0
833 883 894 0
833 885 896 0
835 889 900 0
835 891 902 0
835 893 904 0
837 897 908 0
837 899 910 0
837 901 912 0
839 905 916 0
839 907 918 0
839 909 920 0
823 847 0
825 855 0
827 863 0
829 871 0
831 879 0
833 887 0
835 895 0
837 903 0
839 911 0
5 922 0
11 934 0
15 946 0
19 958 0
23 970 0
27 982 0
31 994 0
33 1006 0
37 1018 0
39 1030 0
921 934 0
923 936 0
925 938 0
927 940 0
929 942 0
931 944 0
933 946 0
935 948 0
937 950 0
939 952 0
941 954 0
943 956 0
945 958 0
947 960 0
949 962 0
951 964 0
953 966 0
955 968 0
957 970 0
959 972 0
961 974 0
963 976 0
965 978 0
967 980 0
969 982 0
971 984 0
973 986 0
975 988 0
977 990 0
979 992 0
981 994 0
983 996 0
985 998 0
987 1000 0
989 1002 0
991 1004 0
993 1006 0
995 1008 0
997 1010 0
999 1012 0
1001 1014 0
1003 1016 0
1005 1018 0
1007 1020 0
1009 1022 0
1011 1024 0
1013 1026 0
1015 1028 0
1017 1030 0
1019 1032 0
1021 1034 0
1023 1036 0
1025 1038 0
1027 1040 0
11 921 936 0
11 923 938 0
11 925 940 0
11 927 942 0
11 929 944 0
15 933 948 0
15 935 950 0
15 937 952 0
15 939 954 0
15 941 956 0
19 945 960 0
19 947 962 0
19 949 964 0
19 951 966 0
19 953 968 0
23 957 972 0
23 959 974 0
23 961 976 0
23 963 978 0
23 965 980 0
27 969 984 0
27 971 986 0
27 973 988 0
27 975 990 0
27 977 992 0
31 981 996 0
31 983 998 0
31 985 1000 0
31 987 1002 0
31 989 1004 0
33 993 1008 0
33 995 1010 0
33 997 1012 0
33 999 1014 0
33 1001 1016 0
37 1005 1020 0
37 1007 1022 0
37 1009 1024 0
37 1011 1026 0
37 1013 1028 0
39 1017 1032 0
39 1019 1034 0
39 1021 1036 0
39 1023 1038 0
39 1025 1040 0
11 931 0
15 943 0
19 955 0
23 967 0
27 979 0
31 991 0
33 1003 0
37 1015 0
39 1027 0
1042 6 0
1041 5 0
1044 12 0
1043 11 0
1046 16 0
1045 15 0
1048 20 0
1047 19 0
1050 24 0
1049 23 0
1052 28 0
1051 27 0
1054 32 0
1053 31 0
1056 34 0
1055 33 0
1058 38 0
1057 37 0
1060 40 0
1059 39 0
1041 1062 0
1043 1070 0
1045 1078 0
1047 1086 0
1049 1094 0
1051 1102 0
1053 1110 0
1055 1118 0
1057 1126 0
1059 1134 0
1061 1070 0
1063 1072 0
1065 1074 0
1067 1076 0
1069 1078 0
1071 1080 0
1073 1082 0
1075 1084 0
1077 1086 0
1079 1088 0
1081 1090 0
1083 1092 0
1085 1094 0
1087 1096 0
1089 1098 0
1091 1100 0
1093 1102 0
1095 1104 0
1097 1106 0
1099 1108 0
1101 1110 0
1103 1112 0
1105 1114 0
1107 1116 0
1109 1118 0
1111 1120 0
1113 1122 0
1115 1124 0
1117 1126 0
1119 1128 0
1121 1130 0
1123 1132 0
1125 1134 0
1127 1136 0
1129 1138 0
1131 1140 0
1043 1061 1072 0
1043 1063 1074 0
1043 1065 1076 0
1045 1069 1080 0
1045 1071 1082 0
1045 1073 1084 0
1047 1077 1088 0
1047 1079 1090 0
1047 1081 1092 0
1049 1085 1096 0
1049 1087 1098 0
1049 1089 1100 0
1051 1093 1104 0
1051 1095 1106 0
1051 1097 1108 0
1053 1101 1112 0
1053 1103 1114 0
1053 1105 1116 0
1055 1109 1120 0
1055 1111 1122 0
1055 1113 1124 0
1057 1117 1128 0
1057 1119 1130 0
1057 1121 1132 0
1059 1125 1136 0
1059 1127 1138 0
1059 1129 1140 0
1043 1067 0
1045 1075 0
1047 1083 0
1049 1091 0
1051 1099 0
1053 1107 0
1055 1115 0
1057 1123 0
1059 1131 0
7 1142 0
13 1154 0
17 1166 0
19 1178 0
25 1190 0
29 1202 0
31 1214 0
35 1226 0
37 1238 0
39 1250 0
1141 1154 0
1143 1156 0
1145 1158 0
1147 1160 0
1149 1162 0
1151 1164 0
1153 1166 0
1155 1168 0
1157 1170 0
1159 1172 0
1161 1174 0
1163 1176 0
1165 1178 0
1167 1180 0
1169 1182 0
1171 1184 0
1173 1186 0
1175 1188 0
1177 1190 0
1179 1192 0
1181 1194 0
1183 1196 0
1185 1198 0
1187 1200 0
1189 1202 0
1191 1204 0
1193 1206 0
1195 1208 0
1197 1210 0
1199 1212 0
1201 1214 0
1203 1216 0
1205 1218 0
1207 1220 0
1209 1222 0
1211 1224 0
1213 1226 0
1215 1228 0
1217 1230 0
1219 1232 0
1221 1234 0
1223 1236 0
1225 1238 0
1227 1240 0
1229 1242 0
1231 1244 0
1233 1246 0
1235 1248 0
1237 1250 0
1239 1252 0
1241 1254 0
1243 1256 0
1245 1258 0
1247 1260 0
13 1141 1156 0
13 1143 1158 0
13 1145 1160 0
13 1147 1162 0
13 1149 1164 0
17 1153 1168 0
17 1155 1170 0
17 1157 1172 0
17 1159 1174 0
17 1161 1176 0
19 1165 1180 0
19 1167 1182 0
19 1169 1184 0
19 1171 1186 0
19 1173 1188 0
25 1177 1192 0
25 1179 1194 0
25 1181 1196 0
25 1183 1198 0
25 1185 1200 0
29 1189 1204 0
29 1191 1206 0
29 1193 1208 0
29 1195 1210 0
29 1197 1212 0
31 1201 1216 0
31 1203 1218 0
31 1205 1220 0
31 1207 1222 0
31 1209 1224 0
35 1213 1228 0
35 1215 1230 0
35 1217 1232 0
35 1219 1234 0
35 1221 1236 0
37 1225 1240 0
37 1227 1242 0
37 1229 1244 0
37 1231 1246 0
37 1233 1248 0
39 1237 1252 0
39 1239 1254 0
39 1241 1256 0
39 1243 1258 0
39 1245 1260 0
13 1151 0
17 1163 0
19 1175 0
25 1187 0
29 1199 0
31 1211 0
35 1223 0
37 1235 0
39 1247 0
1262 8 0
1261 7 0
1264 14 0
1263 13 0
1266 18 0
1265 17 0
1268 20 0
1267 19 0
1270 26 0
1269 25 0
1272 30 0
1271 29 0
1274 32 0
1273 31 0
1276 36 0
1275 35 0
1278 38 0
1277 37 0
1280 40 0
1279 39 0
1261 1282 0
1263 1290 0
1265 1298 0
1267 1306 0
1269 1314 0
1271 1322 0
1273 1330 0
1275 1338 0
1277 1346 0
1279 1354 0
1281 1290 0
1283 1292 0
1285 1294 0
1287 1296 0
1289 1298 0
1291 1300 0
1293 1302 0
1295 1304 0
1297 1306 0
1299 1308 0
1301 1310 0
1303 1312 0
1305 1314 0
1307 1316 0
1309 1318 0
1311 1320 0
1313 1322 0
1315 1324 0
1317 1326 0
1319 1328 0
1321 1330 0
1323 1332 0
1325 1334 0
1327 1336 0
1329 1338 0
1331 1340 0
1333 1342 0
1335 1344 0
1337 1346 0
1339 1348 0
1341 1350 0
1343 1352 0
1345 1354 0
1347 1356 0
1349 1358 0
1351 1360 0
1263 1281 1292 0
1263 1283 1294 0
1263 1285 1296 0
1265 1289 1300 0
1265 1291 1302 0
1265 1293 1304 0
1267 1297 1308 0
1267 1299 1310 0
1267 1301 1312 0
1269 1305 1316 0
1269 1307 1318 0
1269 1309 1320 0
1271 1313 1324 0
1271 1315 1326 0
1271 1317 1328 0
1273 1321 1332 0
1273 1323 1334 0
1273 1325 1336 0
1275 1329 1340 0
1275 1331 1342 0
1275 1333 1344 0
1277 1337 1348 0
1277 1339 1350 0
1277 1341 1352 0
1279 1345 1356 0
1279 1347 1358 0
1279 1349 1360 0
1263 1287 0
1265 1295 0
1267 1303 0
1269 1311 0
1271 1319 0
1273 1327 0
1275 1335 0
1277 1343 0
1279 1351 0
2 0
1 2 0
-1 -2 0
3 4 0
-3 -4 0
5 6 0
-5 -6 0
7 8 0
-7 -8 0
9 10 0
-9 -10 0
11 12 0
-11 -12 0
13 14 0
-13 -14 0
15 16 0
-15 -16 0
17 18 0
-17 -18 0
19 20 0
-19 -20 0
21 22 0
-21 -22 0
23 24 0
-23 -24 0
25 26 0
-25 -26 0
27 28 0
-27 -28 0
29 30 0
-29 -30 0
31 32 0
-31 -32 0
33 34 0
-33 -34 0
35 36 0
-35 -36 0
37 38 0
-37 -38 0
39 40 0
-39 -40 0
41 42 0
-41 -42 0
43 44 0
-43 -44 0
45 46 0
-45 -46 0
47 48 0
-47 -48 0
49 50 0
-49 -50 0
51 52 0
-51 -52 0
53 54 0
-53 -54 0
55 56 0
-55 -56 0
57 58 0
-57 -58 0
59 60 0
-59 -60 0
61 62 0
-61 -62 0
63 64 0
-63 -64 0
65 66 0
-65 -66 0
67 68 0
-67 -68 0
69 70 0
-69 -70 0
71 72 0
-71 -72 0
73 74 0
-73 -74 0
75 76 0
-75 -76 0
77 78 0
-77 -78 0
79 80 0
-79 -80 0
81 82 0
-81 -82 0
83 84 0
-83 -84 0
85 86 0
-85 -86 0
87 88 0
-87 -88 0
89 90 0
-89 -90 0
91 92 0
-91 -92 0
93 94 0
-93 -94 0
95 96 0
-95 -96 0
97 98 0
-97 -98 0
99 100 0
-99 -100 0
101 102 0
-101 -102 0
103 104 0
-103 -104 0
105 106 0
-105 -106 0
107 108 0
-107 -108 0
109 110 0
-109 -110 0
111 112 0
-111 -112 0
113 114 0
-113 -114 0
115 116 0
-115 -116 0
117 118 0
-117 -118 0
119 120 0
-119 -120 0
121 122 0
-121 -122 0
123 124 0
-123 -124 0
125 126 0
-125 -126 0
127 128 0
-127 -128 0
129 130 0
-129 -130 0
131 132 0
-131 -132 0
133 134 0
-133 -134 0
135 136 0
-135 -136 0
137 138 0
-137 -138 0
139 140 0
-139 -140 0
141 142 0
-141 -142 0
143 144 0
-143 -144 0
145 146 0
-145 -146 0
147 148 0
-147 -148 0
149 150 0
-149 -150 0
151 152 0
-151 -152 0
153 154 0
-153 -154 0
155 156 0
-155 -156 0
157 158 0
-157 -158 0
159 160 0
-159 -160 0
161 162 0
-161 -162 0
163 164 0
-163 -164 0
165 166 0
-165 -166 0
167 168 0
-167 -168 0
169 170 0
-169 -170 0
171 172 0
-171 -172 0
173 174 0
-173 -174 0
175 176 0
-175 -176 0
177 178 0
-177 -178 0
179 180 0
-179 -180 0
181 182 0
-181 -182 0
183 184 0
-183 -184 0
185 186 0
-185 -186 0
187 188 0
-187 -188 0
189 190 0
-189 -190 0
191 192 0
-191 -192 0
193 194 0
-193 -194 0
195 196 0
-195 -196 0
197 198 0
-197 -198 0
199 200 0
-199 -200 0
201 202 0
-201 -202 0
203 204 0
-203 -204 0
205 206 0
-205 -206 0
207 208 0
-207 -208 0
209 210 0
-209 -210 0
211 212 0
-211 -212 0
213 214 0
-213 -214 0
215 216 0
-215 -216 0
217 218 0
-217 -218 0
219 220 0
-219 -220 0
221 222 0
-221 -222 0
223 224 0
-223 -224 0
225 226 0
-225 -226 0
227 228 0
-227 -228 0
229 230 0
-229 -230 0
231 232 0
-231 -232 0
233 234 0
-233 -234 0
235 236 0
-235 -236 0
237 238 0
-237 -238 0
239 240 0
-239 -240 0
241 242 0
-241 -242 0
243 244 0
-243 -244 0
245 246 0
-245 -246 0
247 248 0
-247 -248 0
249 250 0
-249 -250 0
251 252 0
-251 -252 0
253 254 0
-253 -254 0
255 256 0
-255 -256 0
257 258 0
-257 -258 0
259 260 0
-259 -260 0
261 262 0
-261 -262 0
263 264 0
-263 -264 0
265 266 0
-265 -266 0
267 268 0
-267 -268 0
269 270 0
-269 -270 0
271 272 0
-271 -272 0
273 274 0
-273 -274 0
275 276 0
-275 -276 0
277 278 0
-277 -278 0
279 280 0
-279 -280 0
281 282 0
-281 -282 0
283 284 0
-283 -284 0
285 286 0
-285 -286 0
287 288 0
-287 -288 0
289 290 0
-289 -290 0
291 292 0
-291 -292 0
293 294 0
-293 -294 0
295 296 0
-295 -296 0
297 298 0
-297 -298 0
299 300 0
-299 -300 0
301 302 0
-301 -302 0
303 304 0
-303 -304 0
305 306 0
-305 -306 0
307 308 0
-307 -308 0
309 310 0
-309 -310 0
311 312 0
-311 -312 0
313 314 0
-313 -314 0
315 316 0
-315 -316 0
317 318 0
-317 -318 0
319 320 0
-319 -320 0
321 322 0
-321 -322 0
323 324 0
-323 -324 0
325 326 0
-325 -326 0
327 328 0
-327 -328 0
329 330 0
-329 -330 0
331 332 0
-331 -332 0
333 334 0
-333 -334 0
335 336 0
-335 -336 0
337 338 0
-337 -338 0
339 340 0
-339 -340 0
341 342 0
-341 -342 0
343 344 0
-343 -344 0
345 346 0
-345 -346 0
347 348 0
-347 -348 0
349 350 0
-349 -350 0
351 352 0
-351 -352 0
353 354 0
-353 -354 0
355 356 0
-355 -356 0
357 358 0
-357 -358 0
359 360 0
-359 -360 0
361 362 0
-361 -362 0
363 364 0
-363 -364 0
365 366 0
-365 -366 0
367 368 0
-367 -368 0
369 370 0
-369 -370 0
371 372 0
-371 -372 0
373 374 0
-373 -374 0
375 376 0
-375 -376 0
377 378 0
-377 -378 0
379 380 0
-379 -380 0
381 382 0
-381 -382 0
383 384 0
-383 -384 0
385 386 0
-385 -386 0
387 388 0
-387 -388 0
389 390 0
-389 -390 0
391 392 0
-391 -392 0
393 394 0
-393 -394 0
395 396 0
-395 -396 0
397 398 0
-397 -398 0
399 400 0
-399 -400 0
401 402 0
-401 -402 0
403 404 0
-403 -404 0
405 406 0
-405 -406 0
407 408 0
-407 -408 0
409 410 0
-409 -410 0
411 412 0
-411 -412 0
413 414 0
-413 -414 0
415 416 0
-415 -416 0
417 418 0
-417 -418 0
419 420 0
-419 -420 0
421 422 0
-421 -422 0
423 424 0
-423 -424 0
425 426 0
-425 -426 0
427 428 0
-427 -428 0
429 430 0
-429 -430 0
431 432 0
-431 -432 0
433 434 0
-433 -434 0
435 436 0
-435 -436 0
437 438 0
-437 -438 0
439 440 0
-439 -440 0
441 442 0
-441 -442 0
443 444 0
-443 -444 0
445 446 0
-445 -446 0
447 448 0
-447 -448 0
449 450 0
-449 -450 0
451 452 0
-451 -452 0
453 454 0
-453 -454 0
455 456 0
-455 -456 0
457 458 0
-457 -458 0
459 460 0
-459 -460 0
461 462 0
-461 -462 0
463 464 0
-463 -464 0
465 466 0
-465 -466 0
467 468 0
-467 -468 0
469 470 0
-469 -470 0
471 472 0
-471 -472 0
473 474 0
-473 -474 0
475 476 0
-475 -476 0
477 478 0
-477 -478 0
479 480 0
-479 -480 0
481 482 0
-481 -482 0
483 484 0
-483 -484 0
485 486 0
-485 -486 0
487 488 0
-487 -488 0
489 490 0
-489 -490 0
491 492 0
-491 -492 0
493 494 0
-493 -494 0
495 496 0
-495 -496 0
497 498 0
-497 -498 0
499 500 0
-499 -500 0
501 502 0
-501 -502 0
503 504 0
-503 -504 0
505 506 0
-505 -506 0
507 508 0
-507 -508 0
509 510 0
-509 -510 0
511 512 0
-511 -512 0
513 514 0
-513 -514 0
515 516 0
-515 -516 0
517 518 0
-517 -518 0
519 520 0
-519 -520 0
521 522 0
-521 -522 0
523 524 0
-523 -524 0
525 526 0
-525 -526 0
527 528 0
-527 -528 0
529 530 0
-529 -530 0
531 532 0
-531 -532 0
533 534 0
-533 -534 0
535 536 0
-535 -536 0
537 538 0
-537 -538 0
539 540 0
-539 -540 0
541 542 0
-541 -542 0
543 544 0
-543 -544 0
545 546 0
-545 -546 0
547 548 0
-547 -548 0
549 550 0
-549 -550 0
551 552 0
-551 -552 0
553 554 0
-553 -554 0
555 556 0
-555 -556 0
557 558 0
-557 -558 0
559 560 0
-559 -560 0
561 562 0
-561 -562 0
563 564 0
-563 -564 0
565 566 0
-565 -566 0
567 568 0
-567 -568 0
569 570 0
-569 -570 0
571 572 0
-571 -572 0
573 574 0
-573 -574 0
575 576 0
-575 -576 0
577 578 0
-577 -578 0
579 580 0
-579 -580 0
581 582 0
-581 -582 0
583 584 0
-583 -584 0
585 586 0
-585 -586 0
587 588 0
-587 -588 0
589 590 0
-589 -590 0
591 592 0
-591 -592 0
593 594 0
-593 -594 0
595 596 0
-595 -596 0
597 598 0
-597 -598 0
599 600 0
-599 -600 0
601 602 0
-601 -602 0
603 604 0
-603 -604 0
605 606 0
-605 -606 0
607 608 0
-607 -608 0
609 610 0
-609 -610 0
611 612 0
-611 -612 0
613 614 0
-613 -614 0
615 616 0
-615 -616 0
617 618 0
-617 -618 0
619 620 0
-619 -620 0
621 622 0
-621 -622 0
623 624 0
-623 -624 0
625 626 0
-625 -626 0
627 628 0
-627 -628 0
629 630 0
-629 -630 0
631 632 0
-631 -632 0
633 634 0
-633 -634 0
635 636 0
-635 -636 0
637 638 0
-637 -638 0
639 640 0
-639 -640 0
641 642 0
-641 -642 0
643 644 0
-643 -644 0
645 646 0
-645 -646 0
647 648 0
-647 -648 0
649 650 0
-649 -650 0
651 652 0
-651 -652 0
653 654 0
-653 -654 0
655 656 0
-655 -656 0
657 658 0
-657 -658 0
659 660 0
-659 -660 0
661 662 0
-661 -662 0
663 664 0
-663 -664 0
665 666 0
-665 -666 0
667 668 0
-667 -668 0
669 670 0
-669 -670 0
671 672 0
-671 -672 0
673 674 0
-673 -674 0
675 676 0
-675 -676 0
677 678 0
-677 -678 0
679 680 0
-679 -680 0
681 682 0
-681 -682 0
683 684 0
-683 -684 0
685 686 0
-685 -686 0
687 688 0
-687 -688 0
689 690 0
-689 -690 0
691 692 0
-691 -692 0
693 694 0
-693 -694 0
695 696 0
-695 -696 0
697 698 0
-697 -698 0
699 700 0
-699 -700 0
701 702 0
-701 -702 0
703 704 0
-703 -704 0
705 706 0
-705 -706 0
707 708 0
-707 -708 0
709 710 0
-709 -710 0
711 712 0
-711 -712 0
713 714 0
-713 -714 0
715 716 0
-715 -716 0
717 718 0
-717 -718 0
719 720 0
-719 -720 0
721 722 0
-721 -722 0
723 724 0
-723 -724 0
725 726 0
-725 -726 0
727 728 0
-727 -728 0
729 730 0
-729 -730 0
731 732 0
-731 -732 0
733 734 0
-733 -734 0
735 736 0
-735 -736 0
737 738 0
-737 -738 0
739 740 0
-739 -740 0
741 742 0
-741 -742 0
743 744 0
-743 -744 0
745 746 0
-745 -746 0
747 748 0
-747 -748 0
749 750 0
-749 -750 0
751 752 0
-751 -752 0
753 754 0
-753 -754 0
755 756 0
-755 -756 0
757 758 0
-757 -758 0
759 760 0
-759 -760 0
761 762 0
-761 -762 0
763 764 0
-763 -764 0
765 766 0
-765 -766 0
767 768 0
-767 -768 0
769 770 0
-769 -770 0
771 772 0
-771 -772 0
773 774 0
-773 -774 0
775 776 0
-775 -776 0
777 778 0
-777 -778 0
779 780 0
-779 -780 0
781 782 0
-781 -782 0
783 784 0
-783 -784 0
785 786 0
-785 -786 0
787 788 0
-787 -788 0
789 790 0
-789 -790 0
791 792 0
-791 -792 0
793 794 0
-793 -794 0
795 796 0
-795 -796 0
797 798 0
-797 -798 0
799 800 0
-799 -800 0
801 802 0
-801 -802 0
803 804 0
-803 -804 0
805 806 0
-805 -806 0
807 808 0
-807 -808 0
809 810 0
-809 -810 0
811 812 0
-811 -812 0
813 814 0
-813 -814 0
815 816 0
-815 -816 0
817 818 0
-817 -818 0
819 820 0
-819 -820 0
821 822 0
-821 -822 0
823 824 0
-823 -824 0
825 826 0
-825 -826 0
827 828 0
-827 -828 0
829 830 0
-829 -830 0
831 832 0
-831 -832 0
833 834 0
-833 -834 0
835 836 0
-835 -836 0
837 838 0
-837 -838 0
839 840 0
-839 -840 0
841 842 0
-841 -842 0
843 844 0
-843 -844 0
845 846 0
-845 -846 0
847 848 0
-847 -848 0
849 850 0
-849 -850 0
851 852 0
-851 -852 0
853 854 0
-853 -854 0
855 856 0
-855 -856 0
857 858 0
-857 -858 0
859 860 0
-859 -860 0
861 862 0
-861 -862 0
863 864 0
-863 -864 0
865 866 0
-865 -866 0
867 868 0
-867 -868 0
869 870 0
-869 -870 0
871 872 0
-871 -872 0
873 874 0
-873 -874 0
875 876 0
-875 -876 0
877 878 0
-877 -878 0
879 880 0
-879 -880 0
881 882 0
-881 -882 0
883 884 0
-883 -884 0
885 886 0
-885 -886 0
887 888 0
-887 -888 0
889 890 0
-889 -890 0
891 892 0
-891 -892 0
893 894 0
-893 -894 0
895 896 0
-895 -896 0
897 898 0
-897 -898 0
899 900 0
-899 -900 0
901 902 0
-901 -902 0
903 904 0
-903 -904 0
905 906 0
-905 -906 0
907 908 0
-907 -908 0
909 910 0
-909 -910 0
911 912 0
-911 -912 0
913 914 0
-913 -914 0
915 916 0
-915 -916 0
917 918 0
-917 -918 0
919 920 0
-919 -920 0
921 922 0
-921 -922 0
923 924 0
-923 -924 0
925 926 0
-925 -926 0
927 928 0
-927 -928 0
929 930 0
-929 -930 0
931 932 0
-931 -932 0
933 934 0
-933 -934 0
935 936 0
-935 -936 0
937 938 0
-937 -938 0
939 940 0
-939 -940 0
941 942 0
-941 -942 0
943 944 0
-943 -944 0
945 946 0
-945 -946 0
947 948 0
-947 -948 0
949 950 0
-949 -950 0
951 952 0
-951 -952 0
953 954 0
-953 -954 0
955 956 0
-955 -956 0
957 958 0
-957 -958 0
959 960 0
-959 -960 0
961 962 0
-961 -962 0
963 964 0
-963 -964 0
965 966 0
-965 -966 0
967 968 0
-967 -968 0
969 970 0
-969 -970 0
971 972 0
-971 -972 0
973 974 0
-973 -974 0
975 976 0
-975 -976 0
977 978 0
-977 -978 0
979 980 0
-979 -980 0
981 982 0
-981 -982 0
983 984 0
-983 -984 0
985 986 0
-985 -986 0
987 988 0
-987 -988 0
989 990 0
-989 -990 0
991 992 0
-991 -992 0
993 994 0
-993 -994 0
995 996 0
-995 -996 0
997 998 0
-997 -998 0
999 1000 0
-999 -1000 0
1001 1002 0
-1001 -1002 0
1003 1004 0
-1003 -1004 0
1005 1006 0
-1005 -1006 0
1007 1008 0
-1007 -1008 0
1009 1010 0
-1009 -1010 0
1011 1012 0
-1011 -1012 0
1013 1014 0
-1013 -1014 0
1015 1016 0
-1015 -1016 0
1017 1018 0
-1017 -1018 0
1019 1020 0
-1019 -1020 0
1021 1022 0
-1021 -1022 0
1023 1024 0
-1023 -1024 0
1025 1026 0
-1025 -1026 0
1027 1028 0
-1027 -1028 0
1029 1030 0
-1029 -1030 0
1031 1032 0
-1031 -1032 0
1033 1034 0
-1033 -1034 0
1035 1036 0
-1035 -1036 0
1037 1038 0
-1037 -1038 0
1039 1040 0
-1039 -1040 0
1041 1042 0
-1041 -1042 0
1043 1044 0
-1043 -1044 0
1045 1046 0
-1045 -1046 0
1047 1048 0
-1047 -1048 0
1049 1050 0
-1049 -1050 0
1051 1052 0
-1051 -1052 0
1053 1054 0
-1053 -1054 0
1055 1056 0
-1055 -1056 0
1057 1058 0
-1057 -1058 0
1059 1060 0
-1059 -1060 0
1061 1062 0
-1061 -1062 0
1063 1064 0
-1063 -1064 0
1065 1066 0
-1065 -1066 0
1067 1068 0
-1067 -1068 0
1069 1070 0
-1069 -1070 0
1071 1072 0
-1071 -1072 0
1073 1074 0
-1073 -1074 0
1075 1076 0
-1075 -1076 0
1077 1078 0
-1077 -1078 0
1079 1080 0
-1079 -1080 0
1081 1082 0
-1081 -1082 0
1083 1084 0
-1083 -1084 0
1085 1086 0
-1085 -1086 0
1087 1088 0
-1087 -1088 0
1089 1090 0
-1089 -1090 0
1091 1092 0
-1091 -1092 0
1093 1094 0
-1093 -1094 0
1095 1096 0
-1095 -1096 0
1097 1098 0
-1097 -1098 0
1099 1100 0
-1099 -1100 0
1101 1102 0
-1101 -1102 0
1103 1104 0
-1103 -1104 0
1105 1106 0
-1105 -1106 0
1107 1108 0
-1107 -1108 0
1109 1110 0
-1109 -1110 0
1111 1112 0
-1111 -1112 0
1113 1114 0
-1113 -1114 0
1115 1116 0
-1115 -1116 0
1117 1118 0
-1117 -1118 0
1119 1120 0
-1119 -1120 0
1121 1122 0
-1121 -1122 0
1123 1124 0
-1123 -1124 0
1125 1126 0
-1125 -1126 0
1127 1128 0
-1127 -1128 0
1129 1130 0
-1129 -1130 0
1131 1132 0
-1131 -1132 0
1133 1134 0
-1133 -1134 0
1135 1136 0
-1135 -1136 0
1137 1138 0
-1137 -1138 0
1139 1140 0
-1139 -1140 0
1141 1142 0
-1141 -1142 0
1143 1144 0
-1143 -1144 0
1145 1146 0
-1145 -1146 0
1147 1148 0
-1147 -1148 0
1149 1150 0
-1149 -1150 0
1151 1152 0
-1151 -1152 0
1153 1154 0
-1153 -1154 0
1155 1156 0
-1155 -1156 0
1157 1158 0
-1157 -1158 0
1159 1160 0
-1159 -1160 0
1161 1162 0
-1161 -1162 0
1163 1164 0
-1163 -1164 0
1165 1166 0
-1165 -1166 0
1167 1168 0
-1167 -1168 0
1169 1170 0
-1169 -1170 0
1171 1172 0
-1171 -1172 0
1173 1174 0
-1173 -1174 0
1175 1176 0
-1175 -1176 0
1177 1178 0
-1177 -1178 0
1179 1180 0
-1179 -1180 0
1181 1182 0
-1181 -1182 0
1183 1184 0
-1183 -1184 0
1185 1186 0
-1185 -1186 0
1187 1188 0
-1187 -1188 0
1189 1190 0
-1189 -1190 0
1191 1192 0
-1191 -1192 0
1193 1194 0
-1193 -1194 0
1195 1196 0
-1195 -1196 0
1197 1198 0
-1197 -1198 0
1199 1200 0
-1199 -1200 0
1201 1202 0
-1201 -1202 0
1203 1204 0
-1203 -1204 0
1205 1206 0
-1205 -1206 0
1207 1208 0
-1207 -1208 0
1209 1210 0
-1209 -1210 0
1211 1212 0
-1211 -1212 0
1213 1214 0
-1213 -1214 0
1215 1216 0
-1215 -1216 0
1217 1218 0
-1217 -1218 0
1219 1220 0
-1219 -1220 0
1221 1222 0
-1221 -1222 0
1223 1224 0
-1223 -1224 0
1225 1226 0
-1225 -1226 0
1227 1228 0
-1227 -1228 0
1229 1230 0
-1229 -1230 0
1231 1232 0
-1231 -1232 0
1233 1234 0
-1233 -1234 0
1235 1236 0
-1235 -1236 0
1237 1238 0
-1237 -1238 0
1239 1240 0
-1239 -1240 0
1241 1242 0
-1241 -1242 0
1243 1244 0
-1243 -1244 0
1245 1246 0
-1245 -1246 0
1247 1248 0
-1247 -1248 0
1249 1250 0
-1249 -1250 0
1251 1252 0
-1251 -1252 0
1253 1254 0
-1253 -1254 0
1255 1256 0
-1255 -1256 0
1257 1258 0
-1257 -1258 0
1259 1260 0
-1259 -1260 0
1261 1262 0
-1261 -1262 0
1263 1264 0
-1263 -1264 0
1265 1266 0
-1265 -1266 0
1267 1268 0
-1267 -1268 0
1269 1270 0
-1269 -1270 0
1271 1272 0
-1271 -1272 0
1273 1274 0
-1273 -1274 0
1275 1276 0
-1275 -1276 0
1277 1278 0
-1277 -1278 0
1279 1280 0
-1279 -1280 0
1281 1282 0
-1281 -1282 0
1283 1284 0
-1283 -1284 0
1285 1286 0
-1285 -1286 0
1287 1288 0
-1287 -1288 0
1289 1290 0
-1289 -1290 0
1291 1292 0
-1291 -1292 0
1293 1294 0
-1293 -1294 0
1295 1296 0
-1295 -1296 0
1297 1298 0
-1297 -1298 0
1299 1300 0
-1299 -1300 0
1301 1302 0
-1301 -1302 0
1303 1304 0
-1303 -1304 0
1305 1306 0
-1305 -1306 0
1307 1308 0
-1307 -1308 0
1309 1310 0
-1309 -1310 0
1311 1312 0
-1311 -1312 0
1313 1314 0
-1313 -1314 0
1315 1316 0
-1315 -1316 0
1317 1318 0
-1317 -1318 0
1319 1320 0
-1319 -1320 0
1321 1322 0
-1321 -1322 0
1323 1324 0
-1323 -1324 0
1325 1326 0
-1325 -1326 0
1327 1328 0
-1327 -1328 0
1329 1330 0
-1329 -1330 0
1331 1332 0
-1331 -1332 0
1333 1334 0
-1333 -1334 0
1335 1336 0
-1335 -1336 0
1337 1338 0
-1337 -1338 0
1339 1340 0
-1339 -1340 0
1341 1342 0
-1341 -1342 0
1343 1344 0
-1343 -1344 0
1345 1346 0
-1345 -1346 0
1347 1348 0
-1347 -1348 0
1349 1350 0
-1349 -1350 0
1351 1352 0
-1351 -1352 0
1353 1354 0
-1353 -1354 0
1355 1356 0
-1355 -1356 0
1357 1358 0
-1357 -1358 0
1359 1360 0
-1359 -1360 0
