p cnf 7504 15624
1 3 5 0
1 3 7 0
1 3 9 0
1 3 11 0
1 5 7 0
1 5 9 0
1 5 11 0
1 7 9 0
1 7 11 0
1 9 11 0
3 5 7 0
3 5 9 0
3 5 11 0
3 7 9 0
3 7 11 0
3 9 11 0
5 7 9 0
5 7 11 0
5 9 11 0
7 9 11 0
1 4 6 8 10 12 0
3 2 6 8 10 12 0
5 2 4 8 10 12 0
7 2 4 6 10 12 0
9 2 4 6 8 12 0
11 2 4 6 8 10 0
1 13 15 0
1 13 17 0
1 13 19 0
1 13 21 0
1 15 17 0
1 15 19 0
1 15 21 0
1 17 19 0
1 17 21 0
1 19 21 0
13 15 17 0
13 15 19 0
13 15 21 0
13 17 19 0
13 17 21 0
13 19 21 0
15 17 19 0
15 17 21 0
15 19 21 0
17 19 21 0
1 14 16 18 20 22 0
13 2 16 18 20 22 0
15 2 14 18 20 22 0
17 2 14 16 20 22 0
19 2 14 16 18 22 0
21 2 14 16 18 20 0
3 13 23 0
3 13 25 0
3 13 27 0
3 13 29 0
3 23 25 0
3 23 27 0
3 23 29 0
3 25 27 0
3 25 29 0
3 27 29 0
13 23 25 0
13 23 27 0
13 23 29 0
13 25 27 0
13 25 29 0
13 27 29 0
23 25 27 0
23 25 29 0
23 27 29 0
25 27 29 0
3 14 24 26 28 30 0
13 4 24 26 28 30 0
23 4 14 26 28 30 0
25 4 14 24 28 30 0
27 4 14 24 26 30 0
29 4 14 24 26 28 0
5 15 23 0
5 15 31 0
5 15 33 0
5 15 35 0
5 23 31 0
5 23 33 0
5 23 35 0
5 31 33 0
5 31 35 0
5 33 35 0
15 23 31 0
15 23 33 0
15 23 35 0
15 31 33 0
15 31 35 0
15 33 35 0
23 31 33 0
23 31 35 0
23 33 35 0
31 33 35 0
5 16 24 32 34 36 0
15 6 24 32 34 36 0
23 6 16 32 34 36 0
31 6 16 24 34 36 0
33 6 16 24 32 36 0
35 6 16 24 32 34 0
7 17 25 0
7 17 31 0
7 17 37 0
7 17 39 0
7 25 31 0
7 25 37 0
7 25 39 0
7 31 37 0
7 31 39 0
7 37 39 0
17 25 31 0
17 25 37 0
17 25 39 0
17 31 37 0
17 31 39 0
17 37 39 0
25 31 37 0
25 31 39 0
25 37 39 0
31 37 39 0
7 18 26 32 38 40 0
17 8 26 32 38 40 0
25 8 18 32 38 40 0
31 8 18 26 38 40 0
37 8 18 26 32 40 0
39 8 18 26 32 38 0
9 19 27 0
9 19 33 0
9 19 37 0
9 19 41 0
9 27 33 0
9 27 37 0
9 27 41 0
9 33 37 0
9 33 41 0
9 37 41 0
19 27 33 0
19 27 37 0
19 27 41 0
19 33 37 0
19 33 41 0
19 37 41 0
27 33 37 0
27 33 41 0
27 37 41 0
33 37 41 0
9 20 28 34 38 42 0
19 10 28 34 38 42 0
27 10 20 34 38 42 0
33 10 20 28 38 42 0
37 10 20 28 34 42 0
41 10 20 28 34 38 0
11 21 29 0
11 21 35 0
11 21 39 0
11 21 41 0
11 29 35 0
11 29 39 0
11 29 41 0
11 35 39 0
11 35 41 0
11 39 41 0
21 29 35 0
21 29 39 0
21 29 41 0
21 35 39 0
21 35 41 0
21 39 41 0
29 35 39 0
29 35 41 0
29 39 41 0
35 39 41 0
11 22 30 36 40 42 0
21 12 30 36 40 42 0
29 12 22 36 40 42 0
35 12 22 30 40 42 0
39 12 22 30 36 42 0
41 12 22 30 36 40 0
1 43 45 0
1 43 47 0
1 43 49 0
1 43 51 0
1 45 47 0
1 45 49 0
1 45 51 0
1 47 49 0
1 47 51 0
1 49 51 0
43 45 47 0
43 45 49 0
43 45 51 0
43 47 49 0
43 47 51 0
43 49 51 0
45 47 49 0
45 47 51 0
45 49 51 0
47 49 51 0
1 44 46 48 50 52 0
43 2 46 48 50 52 0
45 2 44 48 50 52 0
47 2 44 46 50 52 0
49 2 44 46 48 52 0
51 2 44 46 48 50 0
3 43 53 0
3 43 55 0
3 43 57 0
3 43 59 0
3 53 55 0
3 53 57 0
3 53 59 0
3 55 57 0
3 55 59 0
3 57 59 0
43 53 55 0
43 53 57 0
43 53 59 0
43 55 57 0
43 55 59 0
43 57 59 0
53 55 57 0
53 55 59 0
53 57 59 0
55 57 59 0
3 44 54 56 58 60 0
43 4 54 56 58 60 0
53 4 44 56 58 60 0
55 4 44 54 58 60 0
57 4 44 54 56 60 0
59 4 44 54 56 58 0
5 45 53 0
5 45 61 0
5 45 63 0
5 45 65 0
5 53 61 0
5 53 63 0
5 53 65 0
5 61 63 0
5 61 65 0
5 63 65 0
45 53 61 0
45 53 63 0
45 53 65 0
45 61 63 0
45 61 65 0
45 63 65 0
53 61 63 0
53 61 65 0
53 63 65 0
61 63 65 0
5 46 54 62 64 66 0
45 6 54 62 64 66 0
53 6 46 62 64 66 0
61 6 46 54 64 66 0
63 6 46 54 62 66 0
65 6 46 54 62 64 0
7 47 55 0
7 47 61 0
7 47 67 0
7 47 69 0
7 55 61 0
7 55 67 0
7 55 69 0
7 61 67 0
7 61 69 0
7 67 69 0
47 55 61 0
47 55 67 0
47 55 69 0
47 61 67 0
47 61 69 0
47 67 69 0
55 61 67 0
55 61 69 0
55 67 69 0
61 67 69 0
7 48 56 62 68 70 0
47 8 56 62 68 70 0
55 8 48 62 68 70 0
61 8 48 56 68 70 0
67 8 48 56 62 70 0
69 8 48 56 62 68 0
9 49 57 0
9 49 63 0
9 49 67 0
9 49 71 0
9 57 63 0
9 57 67 0
9 57 71 0
9 63 67 0
9 63 71 0
9 67 71 0
49 57 63 0
49 57 67 0
49 57 71 0
49 63 67 0
49 63 71 0
49 67 71 0
57 63 67 0
57 63 71 0
57 67 71 0
63 67 71 0
9 50 58 64 68 72 0
49 10 58 64 68 72 0
57 10 50 64 68 72 0
63 10 50 58 68 72 0
67 10 50 58 64 72 0
71 10 50 58 64 68 0
11 51 59 0
11 51 65 0
11 51 69 0
11 51 71 0
11 59 65 0
11 59 69 0
11 59 71 0
11 65 69 0
11 65 71 0
11 69 71 0
51 59 65 0
51 59 69 0
51 59 71 0
51 65 69 0
51 65 71 0
51 69 71 0
59 65 69 0
59 65 71 0
59 69 71 0
65 69 71 0
11 52 60 66 70 72 0
51 12 60 66 70 72 0
59 12 52 66 70 72 0
65 12 52 60 70 72 0
69 12 52 60 66 72 0
71 12 52 60 66 70 0
13 43 73 0
13 43 75 0
13 43 77 0
13 43 79 0
13 73 75 0
13 73 77 0
13 73 79 0
13 75 77 0
13 75 79 0
13 77 79 0
43 73 75 0
43 73 77 0
43 73 79 0
43 75 77 0
43 75 79 0
43 77 79 0
73 75 77 0
73 75 79 0
73 77 79 0
75 77 79 0
13 44 74 76 78 80 0
43 14 74 76 78 80 0
73 14 44 76 78 80 0
75 14 44 74 78 80 0
77 14 44 74 76 80 0
79 14 44 74 76 78 0
15 45 73 0
15 45 81 0
15 45 83 0
15 45 85 0
15 73 81 0
15 73 83 0
15 73 85 0
15 81 83 0
15 81 85 0
15 83 85 0
45 73 81 0
45 73 83 0
45 73 85 0
45 81 83 0
45 81 85 0
45 83 85 0
73 81 83 0
73 81 85 0
73 83 85 0
81 83 85 0
15 46 74 82 84 86 0
45 16 74 82 84 86 0
73 16 46 82 84 86 0
81 16 46 74 84 86 0
83 16 46 74 82 86 0
85 16 46 74 82 84 0
17 47 75 0
17 47 81 0
17 47 87 0
17 47 89 0
17 75 81 0
17 75 87 0
17 75 89 0
17 81 87 0
17 81 89 0
17 87 89 0
47 75 81 0
47 75 87 0
47 75 89 0
47 81 87 0
47 81 89 0
47 87 89 0
75 81 87 0
75 81 89 0
75 87 89 0
81 87 89 0
17 48 76 82 88 90 0
47 18 76 82 88 90 0
75 18 48 82 88 90 0
81 18 48 76 88 90 0
87 18 48 76 82 90 0
89 18 48 76 82 88 0
19 49 77 0
19 49 83 0
19 49 87 0
19 49 91 0
19 77 83 0
19 77 87 0
19 77 91 0
19 83 87 0
19 83 91 0
19 87 91 0
49 77 83 0
49 77 87 0
49 77 91 0
49 83 87 0
49 83 91 0
49 87 91 0
77 83 87 0
77 83 91 0
77 87 91 0
83 87 91 0
19 50 78 84 88 92 0
49 20 78 84 88 92 0
77 20 50 84 88 92 0
83 20 50 78 88 92 0
87 20 50 78 84 92 0
91 20 50 78 84 88 0
21 51 79 0
21 51 85 0
21 51 89 0
21 51 91 0
21 79 85 0
21 79 89 0
21 79 91 0
21 85 89 0
21 85 91 0
21 89 91 0
51 79 85 0
51 79 89 0
51 79 91 0
51 85 89 0
51 85 91 0
51 89 91 0
79 85 89 0
79 85 91 0
79 89 91 0
85 89 91 0
21 52 80 86 90 92 0
51 22 80 86 90 92 0
79 22 52 86 90 92 0
85 22 52 80 90 92 0
89 22 52 80 86 92 0
91 22 52 80 86 90 0
23 53 73 0
23 53 93 0
23 53 95 0
23 53 97 0
23 73 93 0
23 73 95 0
23 73 97 0
23 93 95 0
23 93 97 0
23 95 97 0
53 73 93 0
53 73 95 0
53 73 97 0
53 93 95 0
53 93 97 0
53 95 97 0
73 93 95 0
73 93 97 0
73 95 97 0
93 95 97 0
23 54 74 94 96 98 0
53 24 74 94 96 98 0
73 24 54 94 96 98 0
93 24 54 74 96 98 0
95 24 54 74 94 98 0
97 24 54 74 94 96 0
25 55 75 0
25 55 93 0
25 55 99 0
25 55 101 0
25 75 93 0
25 75 99 0
25 75 101 0
25 93 99 0
25 93 101 0
25 99 101 0
55 75 93 0
55 75 99 0
55 75 101 0
55 93 99 0
55 93 101 0
55 99 101 0
75 93 99 0
75 93 101 0
75 99 101 0
93 99 101 0
25 56 76 94 100 102 0
55 26 76 94 100 102 0
75 26 56 94 100 102 0
93 26 56 76 100 102 0
99 26 56 76 94 102 0
101 26 56 76 94 100 0
27 57 77 0
27 57 95 0
27 57 99 0
27 57 103 0
27 77 95 0
27 77 99 0
27 77 103 0
27 95 99 0
27 95 103 0
27 99 103 0
57 77 95 0
57 77 99 0
57 77 103 0
57 95 99 0
57 95 103 0
57 99 103 0
77 95 99 0
77 95 103 0
77 99 103 0
95 99 103 0
27 58 78 96 100 104 0
57 28 78 96 100 104 0
77 28 58 96 100 104 0
95 28 58 78 100 104 0
99 28 58 78 96 104 0
103 28 58 78 96 100 0
29 59 79 0
29 59 97 0
29 59 101 0
29 59 103 0
29 79 97 0
29 79 101 0
29 79 103 0
29 97 101 0
29 97 103 0
29 101 103 0
59 79 97 0
59 79 101 0
59 79 103 0
59 97 101 0
59 97 103 0
59 101 103 0
79 97 101 0
79 97 103 0
79 101 103 0
97 101 103 0
29 60 80 98 102 104 0
59 30 80 98 102 104 0
79 30 60 98 102 104 0
97 30 60 80 102 104 0
101 30 60 80 98 104 0
103 30 60 80 98 102 0
31 61 81 0
31 61 93 0
31 61 105 0
31 61 107 0
31 81 93 0
31 81 105 0
31 81 107 0
31 93 105 0
31 93 107 0
31 105 107 0
61 81 93 0
61 81 105 0
61 81 107 0
61 93 105 0
61 93 107 0
61 105 107 0
81 93 105 0
81 93 107 0
81 105 107 0
93 105 107 0
31 62 82 94 106 108 0
61 32 82 94 106 108 0
81 32 62 94 106 108 0
93 32 62 82 106 108 0
105 32 62 82 94 108 0
107 32 62 82 94 106 0
33 63 83 0
33 63 95 0
33 63 105 0
33 63 109 0
33 83 95 0
33 83 105 0
33 83 109 0
33 95 105 0
33 95 109 0
33 105 109 0
63 83 95 0
63 83 105 0
63 83 109 0
63 95 105 0
63 95 109 0
63 105 109 0
83 95 105 0
83 95 109 0
83 105 109 0
95 105 109 0
33 64 84 96 106 110 0
63 34 84 96 106 110 0
83 34 64 96 106 110 0
95 34 64 84 106 110 0
105 34 64 84 96 110 0
109 34 64 84 96 106 0
35 65 85 0
35 65 97 0
35 65 107 0
35 65 109 0
35 85 97 0
35 85 107 0
35 85 109 0
35 97 107 0
35 97 109 0
35 107 109 0
65 85 97 0
65 85 107 0
65 85 109 0
65 97 107 0
65 97 109 0
65 107 109 0
85 97 107 0
85 97 109 0
85 107 109 0
97 107 109 0
35 66 86 98 108 110 0
65 36 86 98 108 110 0
85 36 66 98 108 110 0
97 36 66 86 108 110 0
107 36 66 86 98 110 0
109 36 66 86 98 108 0
37 67 87 0
37 67 99 0
37 67 105 0
37 67 111 0
37 87 99 0
37 87 105 0
37 87 111 0
37 99 105 0
37 99 111 0
37 105 111 0
67 87 99 0
67 87 105 0
67 87 111 0
67 99 105 0
67 99 111 0
67 105 111 0
87 99 105 0
87 99 111 0
87 105 111 0
99 105 111 0
37 68 88 100 106 112 0
67 38 88 100 106 112 0
87 38 68 100 106 112 0
99 38 68 88 106 112 0
105 38 68 88 100 112 0
111 38 68 88 100 106 0
39 69 89 0
39 69 101 0
39 69 107 0
39 69 111 0
39 89 101 0
39 89 107 0
39 89 111 0
39 101 107 0
39 101 111 0
39 107 111 0
69 89 101 0
69 89 107 0
69 89 111 0
69 101 107 0
69 101 111 0
69 107 111 0
89 101 107 0
89 101 111 0
89 107 111 0
101 107 111 0
39 70 90 102 108 112 0
69 40 90 102 108 112 0
89 40 70 102 108 112 0
101 40 70 90 108 112 0
107 40 70 90 102 112 0
111 40 70 90 102 108 0
41 71 91 0
41 71 103 0
41 71 109 0
41 71 111 0
41 91 103 0
41 91 109 0
41 91 111 0
41 103 109 0
41 103 111 0
41 109 111 0
71 91 103 0
71 91 109 0
71 91 111 0
71 103 109 0
71 103 111 0
71 109 111 0
91 103 109 0
91 103 111 0
91 109 111 0
103 109 111 0
41 72 92 104 110 112 0
71 42 92 104 110 112 0
91 42 72 104 110 112 0
103 42 72 92 110 112 0
109 42 72 92 104 112 0
111 42 72 92 104 110 0
1 114 0
3 124 0
5 134 0
7 144 0
9 154 0
11 164 0
13 174 0
15 184 0
17 194 0
19 204 0
21 214 0
23 224 0
25 234 0
27 244 0
29 254 0
31 264 0
33 274 0
35 284 0
37 294 0
39 304 0
41 314 0
113 124 0
115 126 0
117 128 0
119 130 0
121 132 0
123 134 0
125 136 0
127 138 0
129 140 0
131 142 0
133 144 0
135 146 0
137 148 0
139 150 0
141 152 0
143 154 0
145 156 0
147 158 0
149 160 0
151 162 0
153 164 0
155 166 0
157 168 0
159 170 0
161 172 0
163 174 0
165 176 0
167 178 0
169 180 0
171 182 0
173 184 0
175 186 0
177 188 0
179 190 0
181 192 0
183 194 0
185 196 0
187 198 0
189 200 0
191 202 0
193 204 0
195 206 0
197 208 0
199 210 0
201 212 0
203 214 0
205 216 0
207 218 0
209 220 0
211 222 0
213 224 0
215 226 0
217 228 0
219 230 0
221 232 0
223 234 0
225 236 0
227 238 0
229 240 0
231 242 0
233 244 0
235 246 0
237 248 0
239 250 0
241 252 0
243 254 0
245 256 0
247 258 0
249 260 0
251 262 0
253 264 0
255 266 0
257 268 0
259 270 0
261 272 0
263 274 0
265 276 0
267 278 0
269 280 0
271 282 0
273 284 0
275 286 0
277 288 0
279 290 0
281 292 0
283 294 0
285 296 0
287 298 0
289 300 0
291 302 0
293 304 0
295 306 0
297 308 0
299 310 0
301 312 0
303 314 0
305 316 0
307 318 0
309 320 0
311 322 0
3 113 126 0
3 115 128 0
3 117 130 0
3 119 132 0
5 123 136 0
5 125 138 0
5 127 140 0
5 129 142 0
7 133 146 0
7 135 148 0
7 137 150 0
7 139 152 0
9 143 156 0
9 145 158 0
9 147 160 0
9 149 162 0
11 153 166 0
11 155 168 0
11 157 170 0
11 159 172 0
13 163 176 0
13 165 178 0
13 167 180 0
13 169 182 0
15 173 186 0
15 175 188 0
15 177 190 0
15 179 192 0
17 183 196 0
17 185 198 0
17 187 200 0
17 189 202 0
19 193 206 0
19 195 208 0
19 197 210 0
19 199 212 0
21 203 216 0
21 205 218 0
21 207 220 0
21 209 222 0
23 213 226 0
23 215 228 0
23 217 230 0
23 219 232 0
25 223 236 0
25 225 238 0
25 227 240 0
25 229 242 0
27 233 246 0
27 235 248 0
27 237 250 0
27 239 252 0
29 243 256 0
29 245 258 0
29 247 260 0
29 249 262 0
31 253 266 0
31 255 268 0
31 257 270 0
31 259 272 0
33 263 276 0
33 265 278 0
33 267 280 0
33 269 282 0
35 273 286 0
35 275 288 0
35 277 290 0
35 279 292 0
37 283 296 0
37 285 298 0
37 287 300 0
37 289 302 0
39 293 306 0
39 295 308 0
39 297 310 0
39 299 312 0
41 303 316 0
41 305 318 0
41 307 320 0
41 309 322 0
3 121 0
5 131 0
7 141 0
9 151 0
11 161 0
13 171 0
15 181 0
17 191 0
19 201 0
21 211 0
23 221 0
25 231 0
27 241 0
29 251 0
31 261 0
33 271 0
35 281 0
37 291 0
39 301 0
41 311 0
324 2 0
323 1 0
326 4 0
325 3 0
328 6 0
327 5 0
330 8 0
329 7 0
332 10 0
331 9 0
334 12 0
333 11 0
336 14 0
335 13 0
338 16 0
337 15 0
340 18 0
339 17 0
342 20 0
341 19 0
344 22 0
343 21 0
346 24 0
345 23 0
348 26 0
347 25 0
350 28 0
349 27 0
352 30 0
351 29 0
354 32 0
353 31 0
356 34 0
355 33 0
358 36 0
357 35 0
360 38 0
359 37 0
362 40 0
361 39 0
364 42 0
363 41 0
323 366 0
325 398 0
327 430 0
329 462 0
331 494 0
333 526 0
335 558 0
337 590 0
339 622 0
341 654 0
343 686 0
345 718 0
347 750 0
349 782 0
351 814 0
353 846 0
355 878 0
357 910 0
359 942 0
361 974 0
363 1006 0
365 398 0
367 400 0
369 402 0
371 404 0
373 406 0
375 408 0
377 410 0
379 412 0
381 414 0
383 416 0
385 418 0
387 420 0
389 422 0
391 424 0
393 426 0
395 428 0
397 430 0
399 432 0
401 434 0
403 436 0
405 438 0
407 440 0
409 442 0
411 444 0
413 446 0
415 448 0
417 450 0
419 452 0
421 454 0
423 456 0
425 458 0
427 460 0
429 462 0
431 464 0
433 466 0
435 468 0
437 470 0
439 472 0
441 474 0
443 476 0
445 478 0
447 480 0
449 482 0
451 484 0
453 486 0
455 488 0
457 490 0
459 492 0
461 494 0
463 496 0
465 498 0
467 500 0
469 502 0
471 504 0
473 506 0
475 508 0
477 510 0
479 512 0
481 514 0
483 516 0
485 518 0
487 520 0
489 522 0
491 524 0
493 526 0
495 528 0
497 530 0
499 532 0
501 534 0
503 536 0
505 538 0
507 540 0
509 542 0
511 544 0
513 546 0
515 548 0
517 550 0
519 552 0
521 554 0
523 556 0
525 558 0
527 560 0
529 562 0
531 564 0
533 566 0
535 568 0
537 570 0
539 572 0
541 574 0
543 576 0
545 578 0
547 580 0
549 582 0
551 584 0
553 586 0
555 588 0
557 590 0
559 592 0
561 594 0
563 596 0
565 598 0
567 600 0
569 602 0
571 604 0
573 606 0
575 608 0
577 610 0
579 612 0
581 614 0
583 616 0
585 618 0
587 620 0
589 622 0
591 624 0
593 626 0
595 628 0
597 630 0
599 632 0
601 634 0
603 636 0
605 638 0
607 640 0
609 642 0
611 644 0
613 646 0
615 648 0
617 650 0
619 652 0
621 654 0
623 656 0
625 658 0
627 660 0
629 662 0
631 664 0
633 666 0
635 668 0
637 670 0
639 672 0
641 674 0
643 676 0
645 678 0
647 680 0
649 682 0
651 684 0
653 686 0
655 688 0
657 690 0
659 692 0
661 694 0
663 696 0
665 698 0
667 700 0
669 702 0
671 704 0
673 706 0
675 708 0
677 710 0
679 712 0
681 714 0
683 716 0
685 718 0
687 720 0
689 722 0
691 724 0
693 726 0
695 728 0
697 730 0
699 732 0
701 734 0
703 736 0
705 738 0
707 740 0
709 742 0
711 744 0
713 746 0
715 748 0
717 750 0
719 752 0
721 754 0
723 756 0
725 758 0
727 760 0
729 762 0
731 764 0
733 766 0
735 768 0
737 770 0
739 772 0
741 774 0
743 776 0
745 778 0
747 780 0
749 782 0
751 784 0
753 786 0
755 788 0
757 790 0
759 792 0
761 794 0
763 796 0
765 798 0
767 800 0
769 802 0
771 804 0
773 806 0
775 808 0
777 810 0
779 812 0
781 814 0
783 816 0
785 818 0
787 820 0
789 822 0
791 824 0
793 826 0
795 828 0
797 830 0
799 832 0
801 834 0
803 836 0
805 838 0
807 840 0
809 842 0
811 844 0
813 846 0
815 848 0
817 850 0
819 852 0
821 854 0
823 856 0
825 858 0
827 860 0
829 862 0
831 864 0
833 866 0
835 868 0
837 870 0
839 872 0
841 874 0
843 876 0
845 878 0
847 880 0
849 882 0
851 884 0
853 886 0
855 888 0
857 890 0
859 892 0
861 894 0
863 896 0
865 898 0
867 900 0
869 902 0
871 904 0
873 906 0
875 908 0
877 910 0
879 912 0
881 914 0
883 916 0
885 918 0
887 920 0
889 922 0
891 924 0
893 926 0
895 928 0
897 930 0
899 932 0
901 934 0
903 936 0
905 938 0
907 940 0
909 942 0
911 944 0
913 946 0
915 948 0
917 950 0
919 952 0
921 954 0
923 956 0
925 958 0
927 960 0
929 962 0
931 964 0
933 966 0
935 968 0
937 970 0
939 972 0
941 974 0
943 976 0
945 978 0
947 980 0
949 982 0
951 984 0
953 986 0
955 988 0
957 990 0
959 992 0
961 994 0
963 996 0
965 998 0
967 1000 0
969 1002 0
971 1004 0
973 1006 0
975 1008 0
977 1010 0
979 1012 0
981 1014 0
983 1016 0
985 1018 0
987 1020 0
989 1022 0
991 1024 0
993 1026 0
995 1028 0
997 1030 0
999 1032 0
1001 1034 0
1003 1036 0
325 365 400 0
325 367 402 0
325 369 404 0
325 371 406 0
325 373 408 0
325 375 410 0
325 377 412 0
325 379 414 0
325 381 416 0
325 383 418 0
325 385 420 0
325 387 422 0
325 389 424 0
325 391 426 0
325 393 428 0
327 397 432 0
327 399 434 0
327 401 436 0
327 403 438 0
327 405 440 0
327 407 442 0
327 409 444 0
327 411 446 0
327 413 448 0
327 415 450 0
327 417 452 0
327 419 454 0
327 421 456 0
327 423 458 0
327 425 460 0
329 429 464 0
329 431 466 0
329 433 468 0
329 435 470 0
329 437 472 0
329 439 474 0
329 441 476 0
329 443 478 0
329 445 480 0
329 447 482 0
329 449 484 0
329 451 486 0
329 453 488 0
329 455 490 0
329 457 492 0
331 461 496 0
331 463 498 0
331 465 500 0
331 467 502 0
331 469 504 0
331 471 506 0
331 473 508 0
331 475 510 0
331 477 512 0
331 479 514 0
331 481 516 0
331 483 518 0
331 485 520 0
331 487 522 0
331 489 524 0
333 493 528 0
333 495 530 0
333 497 532 0
333 499 534 0
333 501 536 0
333 503 538 0
333 505 540 0
333 507 542 0
333 509 544 0
333 511 546 0
333 513 548 0
333 515 550 0
333 517 552 0
333 519 554 0
333 521 556 0
335 525 560 0
335 527 562 0
335 529 564 0
335 531 566 0
335 533 568 0
335 535 570 0
335 537 572 0
335 539 574 0
335 541 576 0
335 543 578 0
335 545 580 0
335 547 582 0
335 549 584 0
335 551 586 0
335 553 588 0
337 557 592 0
337 559 594 0
337 561 596 0
337 563 598 0
337 565 600 0
337 567 602 0
337 569 604 0
337 571 606 0
337 573 608 0
337 575 610 0
337 577 612 0
337 579 614 0
337 581 616 0
337 583 618 0
337 585 620 0
339 589 624 0
339 591 626 0
339 593 628 0
339 595 630 0
339 597 632 0
339 599 634 0
339 601 636 0
339 603 638 0
339 605 640 0
339 607 642 0
339 609 644 0
339 611 646 0
339 613 648 0
339 615 650 0
339 617 652 0
341 621 656 0
341 623 658 0
341 625 660 0
341 627 662 0
341 629 664 0
341 631 666 0
341 633 668 0
341 635 670 0
341 637 672 0
341 639 674 0
341 641 676 0
341 643 678 0
341 645 680 0
341 647 682 0
341 649 684 0
343 653 688 0
343 655 690 0
343 657 692 0
343 659 694 0
343 661 696 0
343 663 698 0
343 665 700 0
343 667 702 0
343 669 704 0
343 671 706 0
343 673 708 0
343 675 710 0
343 677 712 0
343 679 714 0
343 681 716 0
345 685 720 0
345 687 722 0
345 689 724 0
345 691 726 0
345 693 728 0
345 695 730 0
345 697 732 0
345 699 734 0
345 701 736 0
345 703 738 0
345 705 740 0
345 707 742 0
345 709 744 0
345 711 746 0
345 713 748 0
347 717 752 0
347 719 754 0
347 721 756 0
347 723 758 0
347 725 760 0
347 727 762 0
347 729 764 0
347 731 766 0
347 733 768 0
347 735 770 0
347 737 772 0
347 739 774 0
347 741 776 0
347 743 778 0
347 745 780 0
349 749 784 0
349 751 786 0
349 753 788 0
349 755 790 0
349 757 792 0
349 759 794 0
349 761 796 0
349 763 798 0
349 765 800 0
349 767 802 0
349 769 804 0
349 771 806 0
349 773 808 0
349 775 810 0
349 777 812 0
351 781 816 0
351 783 818 0
351 785 820 0
351 787 822 0
351 789 824 0
351 791 826 0
351 793 828 0
351 795 830 0
351 797 832 0
351 799 834 0
351 801 836 0
351 803 838 0
351 805 840 0
351 807 842 0
351 809 844 0
353 813 848 0
353 815 850 0
353 817 852 0
353 819 854 0
353 821 856 0
353 823 858 0
353 825 860 0
353 827 862 0
353 829 864 0
353 831 866 0
353 833 868 0
353 835 870 0
353 837 872 0
353 839 874 0
353 841 876 0
355 845 880 0
355 847 882 0
355 849 884 0
355 851 886 0
355 853 888 0
355 855 890 0
355 857 892 0
355 859 894 0
355 861 896 0
355 863 898 0
355 865 900 0
355 867 902 0
355 869 904 0
355 871 906 0
355 873 908 0
357 877 912 0
357 879 914 0
357 881 916 0
357 883 918 0
357 885 920 0
357 887 922 0
357 889 924 0
357 891 926 0
357 893 928 0
357 895 930 0
357 897 932 0
357 899 934 0
357 901 936 0
357 903 938 0
357 905 940 0
359 909 944 0
359 911 946 0
359 913 948 0
359 915 950 0
359 917 952 0
359 919 954 0
359 921 956 0
359 923 958 0
359 925 960 0
359 927 962 0
359 929 964 0
359 931 966 0
359 933 968 0
359 935 970 0
359 937 972 0
361 941 976 0
361 943 978 0
361 945 980 0
361 947 982 0
361 949 984 0
361 951 986 0
361 953 988 0
361 955 990 0
361 957 992 0
361 959 994 0
361 961 996 0
361 963 998 0
361 965 1000 0
361 967 1002 0
361 969 1004 0
363 973 1008 0
363 975 1010 0
363 977 1012 0
363 979 1014 0
363 981 1016 0
363 983 1018 0
363 985 1020 0
363 987 1022 0
363 989 1024 0
363 991 1026 0
363 993 1028 0
363 995 1030 0
363 997 1032 0
363 999 1034 0
363 1001 1036 0
325 395 0
327 427 0
329 459 0
331 491 0
333 523 0
335 555 0
337 587 0
339 619 0
341 651 0
343 683 0
345 715 0
347 747 0
349 779 0
351 811 0
353 843 0
355 875 0
357 907 0
359 939 0
361 971 0
363 1003 0
1 1038 0
3 1048 0
5 1058 0
7 1068 0
9 1078 0
11 1088 0
43 1098 0
45 1108 0
47 1118 0
49 1128 0
51 1138 0
53 1148 0
55 1158 0
57 1168 0
59 1178 0
61 1188 0
63 1198 0
65 1208 0
67 1218 0
69 1228 0
71 1238 0
1037 1048 0
1039 1050 0
1041 1052 0
1043 1054 0
1045 1056 0
1047 1058 0
1049 1060 0
1051 1062 0
1053 1064 0
1055 1066 0
1057 1068 0
1059 1070 0
1061 1072 0
1063 1074 0
1065 1076 0
1067 1078 0
1069 1080 0
1071 1082 0
1073 1084 0
1075 1086 0
1077 1088 0
1079 1090 0
1081 1092 0
1083 1094 0
1085 1096 0
1087 1098 0
1089 1100 0
1091 1102 0
1093 1104 0
1095 1106 0
1097 1108 0
1099 1110 0
1101 1112 0
1103 1114 0
1105 1116 0
1107 1118 0
1109 1120 0
1111 1122 0
1113 1124 0
1115 1126 0
1117 1128 0
1119 1130 0
1121 1132 0
1123 1134 0
1125 1136 0
1127 1138 0
1129 1140 0
1131 1142 0
1133 1144 0
1135 1146 0
1137 1148 0
1139 1150 0
1141 1152 0
1143 1154 0
1145 1156 0
1147 1158 0
1149 1160 0
1151 1162 0
1153 1164 0
1155 1166 0
1157 1168 0
1159 1170 0
1161 1172 0
1163 1174 0
1165 1176 0
1167 1178 0
1169 1180 0
1171 1182 0
1173 1184 0
1175 1186 0
1177 1188 0
1179 1190 0
1181 1192 0
1183 1194 0
1185 1196 0
1187 1198 0
1189 1200 0
1191 1202 0
1193 1204 0
1195 1206 0
1197 1208 0
1199 1210 0
1201 1212 0
1203 1214 0
1205 1216 0
1207 1218 0
1209 1220 0
1211 1222 0
1213 1224 0
1215 1226 0
1217 1228 0
1219 1230 0
1221 1232 0
1223 1234 0
1225 1236 0
1227 1238 0
1229 1240 0
1231 1242 0
1233 1244 0
1235 1246 0
3 1037 1050 0
3 1039 1052 0
3 1041 1054 0
3 1043 1056 0
5 1047 1060 0
5 1049 1062 0
5 1051 1064 0
5 1053 1066 0
7 1057 1070 0
7 1059 1072 0
7 1061 1074 0
7 1063 1076 0
9 1067 1080 0
9 1069 1082 0
9 1071 1084 0
9 1073 1086 0
11 1077 1090 0
11 1079 1092 0
11 1081 1094 0
11 1083 1096 0
43 1087 1100 0
43 1089 1102 0
43 1091 1104 0
43 1093 1106 0
45 1097 1110 0
45 1099 1112 0
45 1101 1114 0
45 1103 1116 0
47 1107 1120 0
47 1109 1122 0
47 1111 1124 0
47 1113 1126 0
49 1117 1130 0
49 1119 1132 0
49 1121 1134 0
49 1123 1136 0
51 1127 1140 0
51 1129 1142 0
51 1131 1144 0
51 1133 1146 0
53 1137 1150 0
53 1139 1152 0
53 1141 1154 0
53 1143 1156 0
55 1147 1160 0
55 1149 1162 0
55 1151 1164 0
55 1153 1166 0
57 1157 1170 0
57 1159 1172 0
57 1161 1174 0
57 1163 1176 0
59 1167 1180 0
59 1169 1182 0
59 1171 1184 0
59 1173 1186 0
61 1177 1190 0
61 1179 1192 0
61 1181 1194 0
61 1183 1196 0
63 1187 1200 0
63 1189 1202 0
63 1191 1204 0
63 1193 1206 0
65 1197 1210 0
65 1199 1212 0
65 1201 1214 0
65 1203 1216 0
67 1207 1220 0
67 1209 1222 0
67 1211 1224 0
67 1213 1226 0
69 1217 1230 0
69 1219 1232 0
69 1221 1234 0
69 1223 1236 0
71 1227 1240 0
71 1229 1242 0
71 1231 1244 0
71 1233 1246 0
3 1045 0
5 1055 0
7 1065 0
9 1075 0
11 1085 0
43 1095 0
45 1105 0
47 1115 0
49 1125 0
51 1135 0
53 1145 0
55 1155 0
57 1165 0
59 1175 0
61 1185 0
63 1195 0
65 1205 0
67 1215 0
69 1225 0
71 1235 0
1248 2 0
1247 1 0
1250 4 0
1249 3 0
1252 6 0
1251 5 0
1254 8 0
1253 7 0
1256 10 0
1255 9 0
1258 12 0
1257 11 0
1260 44 0
1259 43 0
1262 46 0
1261 45 0
1264 48 0
1263 47 0
1266 50 0
1265 49 0
1268 52 0
1267 51 0
1270 54 0
1269 53 0
1272 56 0
1271 55 0
1274 58 0
1273 57 0
1276 60 0
1275 59 0
1278 62 0
1277 61 0
1280 64 0
1279 63 0
1282 66 0
1281 65 0
1284 68 0
1283 67 0
1286 70 0
1285 69 0
1288 72 0
1287 71 0
1247 1290 0
1249 1322 0
1251 1354 0
1253 1386 0
1255 1418 0
1257 1450 0
1259 1482 0
1261 1514 0
1263 1546 0
1265 1578 0
1267 1610 0
1269 1642 0
1271 1674 0
1273 1706 0
1275 1738 0
1277 1770 0
1279 1802 0
1281 1834 0
1283 1866 0
1285 1898 0
1287 1930 0
1289 1322 0
1291 1324 0
1293 1326 0
1295 1328 0
1297 1330 0
1299 1332 0
1301 1334 0
1303 1336 0
1305 1338 0
1307 1340 0
1309 1342 0
1311 1344 0
1313 1346 0
1315 1348 0
1317 1350 0
1319 1352 0
1321 1354 0
1323 1356 0
1325 1358 0
1327 1360 0
1329 1362 0
1331 1364 0
1333 1366 0
1335 1368 0
1337 1370 0
1339 1372 0
1341 1374 0
1343 1376 0
1345 1378 0
1347 1380 0
1349 1382 0
1351 1384 0
1353 1386 0
1355 1388 0
1357 1390 0
1359 1392 0
1361 1394 0
1363 1396 0
1365 1398 0
1367 1400 0
1369 1402 0
1371 1404 0
1373 1406 0
1375 1408 0
1377 1410 0
1379 1412 0
1381 1414 0
1383 1416 0
1385 1418 0
1387 1420 0
1389 1422 0
1391 1424 0
1393 1426 0
1395 1428 0
1397 1430 0
1399 1432 0
1401 1434 0
1403 1436 0
1405 1438 0
1407 1440 0
1409 1442 0
1411 1444 0
1413 1446 0
1415 1448 0
1417 1450 0
1419 1452 0
1421 1454 0
1423 1456 0
1425 1458 0
1427 1460 0
1429 1462 0
1431 1464 0
1433 1466 0
1435 1468 0
1437 1470 0
1439 1472 0
1441 1474 0
1443 1476 0
1445 1478 0
1447 1480 0
1449 1482 0
1451 1484 0
1453 1486 0
1455 1488 0
1457 1490 0
1459 1492 0
1461 1494 0
1463 1496 0
1465 1498 0
1467 1500 0
1469 1502 0
1471 1504 0
1473 1506 0
1475 1508 0
1477 1510 0
1479 1512 0
1481 1514 0
1483 1516 0
1485 1518 0
1487 1520 0
1489 1522 0
1491 1524 0
1493 1526 0
1495 1528 0
1497 1530 0
1499 1532 0
1501 1534 0
1503 1536 0
1505 1538 0
1507 1540 0
1509 1542 0
1511 1544 0
1513 1546 0
1515 1548 0
1517 1550 0
1519 1552 0
1521 1554 0
1523 1556 0
1525 1558 0
1527 1560 0
1529 1562 0
1531 1564 0
1533 1566 0
1535 1568 0
1537 1570 0
1539 1572 0
1541 1574 0
1543 1576 0
1545 1578 0
1547 1580 0
1549 1582 0
1551 1584 0
1553 1586 0
1555 1588 0
1557 1590 0
1559 1592 0
1561 1594 0
1563 1596 0
1565 1598 0
1567 1600 0
1569 1602 0
1571 1604 0
1573 1606 0
1575 1608 0
1577 1610 0
1579 1612 0
1581 1614 0
1583 1616 0
1585 1618 0
1587 1620 0
1589 1622 0
1591 1624 0
1593 1626 0
1595 1628 0
1597 1630 0
1599 1632 0
1601 1634 0
1603 1636 0
1605 1638 0
1607 1640 0
1609 1642 0
1611 1644 0
1613 1646 0
1615 1648 0
1617 1650 0
1619 1652 0
1621 1654 0
1623 1656 0
1625 1658 0
1627 1660 0
1629 1662 0
1631 1664 0
1633 1666 0
1635 1668 0
1637 1670 0
1639 1672 0
1641 1674 0
1643 1676 0
1645 1678 0
1647 1680 0
1649 1682 0
1651 1684 0
1653 1686 0
1655 1688 0
1657 1690 0
1659 1692 0
1661 1694 0
1663 1696 0
1665 1698 0
1667 1700 0
1669 1702 0
1671 1704 0
1673 1706 0
1675 1708 0
1677 1710 0
1679 1712 0
1681 1714 0
1683 1716 0
1685 1718 0
1687 1720 0
1689 1722 0
1691 1724 0
1693 1726 0
1695 1728 0
1697 1730 0
1699 1732 0
1701 1734 0
1703 1736 0
1705 1738 0
1707 1740 0
1709 1742 0
1711 1744 0
1713 1746 0
1715 1748 0
1717 1750 0
1719 1752 0
1721 1754 0
1723 1756 0
1725 1758 0
1727 1760 0
1729 1762 0
1731 1764 0
1733 1766 0
1735 1768 0
1737 1770 0
1739 1772 0
1741 1774 0
1743 1776 0
1745 1778 0
1747 1780 0
1749 1782 0
1751 1784 0
1753 1786 0
1755 1788 0
1757 1790 0
1759 1792 0
1761 1794 0
1763 1796 0
1765 1798 0
1767 1800 0
1769 1802 0
1771 1804 0
1773 1806 0
1775 1808 0
1777 1810 0
1779 1812 0
1781 1814 0
1783 1816 0
1785 1818 0
1787 1820 0
1789 1822 0
1791 1824 0
1793 1826 0
1795 1828 0
1797 1830 0
1799 1832 0
1801 1834 0
1803 1836 0
1805 1838 0
1807 1840 0
1809 1842 0
1811 1844 0
1813 1846 0
1815 1848 0
1817 1850 0
1819 1852 0
1821 1854 0
1823 1856 0
1825 1858 0
1827 1860 0
1829 1862 0
1831 1864 0
1833 1866 0
1835 1868 0
1837 1870 0
1839 1872 0
1841 1874 0
1843 1876 0
1845 1878 0
1847 1880 0
1849 1882 0
1851 1884 0
1853 1886 0
1855 1888 0
1857 1890 0
1859 1892 0
1861 1894 0
1863 1896 0
1865 1898 0
1867 1900 0
1869 1902 0
1871 1904 0
1873 1906 0
1875 1908 0
1877 1910 0
1879 1912 0
1881 1914 0
1883 1916 0
1885 1918 0
1887 1920 0
1889 1922 0
1891 1924 0
1893 1926 0
1895 1928 0
1897 1930 0
1899 1932 0
1901 1934 0
1903 1936 0
1905 1938 0
1907 1940 0
1909 1942 0
1911 1944 0
1913 1946 0
1915 1948 0
1917 1950 0
1919 1952 0
1921 1954 0
1923 1956 0
1925 1958 0
1927 1960 0
1249 1289 1324 0
1249 1291 1326 0
1249 1293 1328 0
1249 1295 1330 0
1249 1297 1332 0
1249 1299 1334 0
1249 1301 1336 0
1249 1303 1338 0
1249 1305 1340 0
1249 1307 1342 0
1249 1309 1344 0
1249 1311 1346 0
1249 1313 1348 0
1249 1315 1350 0
1249 1317 1352 0
1251 1321 1356 0
1251 1323 1358 0
1251 1325 1360 0
1251 1327 1362 0
1251 1329 1364 0
1251 1331 1366 0
1251 1333 1368 0
1251 1335 1370 0
1251 1337 1372 0
1251 1339 1374 0
1251 1341 1376 0
1251 1343 1378 0
1251 1345 1380 0
1251 1347 1382 0
1251 1349 1384 0
1253 1353 1388 0
1253 1355 1390 0
1253 1357 1392 0
1253 1359 1394 0
1253 1361 1396 0
1253 1363 1398 0
1253 1365 1400 0
1253 1367 1402 0
1253 1369 1404 0
1253 1371 1406 0
1253 1373 1408 0
1253 1375 1410 0
1253 1377 1412 0
1253 1379 1414 0
1253 1381 1416 0
1255 1385 1420 0
1255 1387 1422 0
1255 1389 1424 0
1255 1391 1426 0
1255 1393 1428 0
1255 1395 1430 0
1255 1397 1432 0
1255 1399 1434 0
1255 1401 1436 0
1255 1403 1438 0
1255 1405 1440 0
1255 1407 1442 0
1255 1409 1444 0
1255 1411 1446 0
1255 1413 1448 0
1257 1417 1452 0
1257 1419 1454 0
1257 1421 1456 0
1257 1423 1458 0
1257 1425 1460 0
1257 1427 1462 0
1257 1429 1464 0
1257 1431 1466 0
1257 1433 1468 0
1257 1435 1470 0
1257 1437 1472 0
1257 1439 1474 0
1257 1441 1476 0
1257 1443 1478 0
1257 1445 1480 0
1259 1449 1484 0
1259 1451 1486 0
1259 1453 1488 0
1259 1455 1490 0
1259 1457 1492 0
1259 1459 1494 0
1259 1461 1496 0
1259 1463 1498 0
1259 1465 1500 0
1259 1467 1502 0
1259 1469 1504 0
1259 1471 1506 0
1259 1473 1508 0
1259 1475 1510 0
1259 1477 1512 0
1261 1481 1516 0
1261 1483 1518 0
1261 1485 1520 0
1261 1487 1522 0
1261 1489 1524 0
1261 1491 1526 0
1261 1493 1528 0
1261 1495 1530 0
1261 1497 1532 0
1261 1499 1534 0
1261 1501 1536 0
1261 1503 1538 0
1261 1505 1540 0
1261 1507 1542 0
1261 1509 1544 0
1263 1513 1548 0
1263 1515 1550 0
1263 1517 1552 0
1263 1519 1554 0
1263 1521 1556 0
1263 1523 1558 0
1263 1525 1560 0
1263 1527 1562 0
1263 1529 1564 0
1263 1531 1566 0
1263 1533 1568 0
1263 1535 1570 0
1263 1537 1572 0
1263 1539 1574 0
1263 1541 1576 0
1265 1545 1580 0
1265 1547 1582 0
1265 1549 1584 0
1265 1551 1586 0
1265 1553 1588 0
1265 1555 1590 0
1265 1557 1592 0
1265 1559 1594 0
1265 1561 1596 0
1265 1563 1598 0
1265 1565 1600 0
1265 1567 1602 0
1265 1569 1604 0
1265 1571 1606 0
1265 1573 1608 0
1267 1577 1612 0
1267 1579 1614 0
1267 1581 1616 0
1267 1583 1618 0
1267 1585 1620 0
1267 1587 1622 0
1267 1589 1624 0
1267 1591 1626 0
1267 1593 1628 0
1267 1595 1630 0
1267 1597 1632 0
1267 1599 1634 0
1267 1601 1636 0
1267 1603 1638 0
1267 1605 1640 0
1269 1609 1644 0
1269 1611 1646 0
1269 1613 1648 0
1269 1615 1650 0
1269 1617 1652 0
1269 1619 1654 0
1269 1621 1656 0
1269 1623 1658 0
1269 1625 1660 0
1269 1627 1662 0
1269 1629 1664 0
1269 1631 1666 0
1269 1633 1668 0
1269 1635 1670 0
1269 1637 1672 0
1271 1641 1676 0
1271 1643 1678 0
1271 1645 1680 0
1271 1647 1682 0
1271 1649 1684 0
1271 1651 1686 0
1271 1653 1688 0
1271 1655 1690 0
1271 1657 1692 0
1271 1659 1694 0
1271 1661 1696 0
1271 1663 1698 0
1271 1665 1700 0
1271 1667 1702 0
1271 1669 1704 0
1273 1673 1708 0
1273 1675 1710 0
1273 1677 1712 0
1273 1679 1714 0
1273 1681 1716 0
1273 1683 1718 0
1273 1685 1720 0
1273 1687 1722 0
1273 1689 1724 0
1273 1691 1726 0
1273 1693 1728 0
1273 1695 1730 0
1273 1697 1732 0
1273 1699 1734 0
1273 1701 1736 0
1275 1705 1740 0
1275 1707 1742 0
1275 1709 1744 0
1275 1711 1746 0
1275 1713 1748 0
1275 1715 1750 0
1275 1717 1752 0
1275 1719 1754 0
1275 1721 1756 0
1275 1723 1758 0
1275 1725 1760 0
1275 1727 1762 0
1275 1729 1764 0
1275 1731 1766 0
1275 1733 1768 0
1277 1737 1772 0
1277 1739 1774 0
1277 1741 1776 0
1277 1743 1778 0
1277 1745 1780 0
1277 1747 1782 0
1277 1749 1784 0
1277 1751 1786 0
1277 1753 1788 0
1277 1755 1790 0
1277 1757 1792 0
1277 1759 1794 0
1277 1761 1796 0
1277 1763 1798 0
1277 1765 1800 0
1279 1769 1804 0
1279 1771 1806 0
1279 1773 1808 0
1279 1775 1810 0
1279 1777 1812 0
1279 1779 1814 0
1279 1781 1816 0
1279 1783 1818 0
1279 1785 1820 0
1279 1787 1822 0
1279 1789 1824 0
1279 1791 1826 0
1279 1793 1828 0
1279 1795 1830 0
1279 1797 1832 0
1281 1801 1836 0
1281 1803 1838 0
1281 1805 1840 0
1281 1807 1842 0
1281 1809 1844 0
1281 1811 1846 0
1281 1813 1848 0
1281 1815 1850 0
1281 1817 1852 0
1281 1819 1854 0
1281 1821 1856 0
1281 1823 1858 0
1281 1825 1860 0
1281 1827 1862 0
1281 1829 1864 0
1283 1833 1868 0
1283 1835 1870 0
1283 1837 1872 0
1283 1839 1874 0
1283 1841 1876 0
1283 1843 1878 0
1283 1845 1880 0
1283 1847 1882 0
1283 1849 1884 0
1283 1851 1886 0
1283 1853 1888 0
1283 1855 1890 0
1283 1857 1892 0
1283 1859 1894 0
1283 1861 1896 0
1285 1865 1900 0
1285 1867 1902 0
1285 1869 1904 0
1285 1871 1906 0
1285 1873 1908 0
1285 1875 1910 0
1285 1877 1912 0
1285 1879 1914 0
1285 1881 1916 0
1285 1883 1918 0
1285 1885 1920 0
1285 1887 1922 0
1285 1889 1924 0
1285 1891 1926 0
1285 1893 1928 0
1287 1897 1932 0
1287 1899 1934 0
1287 1901 1936 0
1287 1903 1938 0
1287 1905 1940 0
1287 1907 1942 0
1287 1909 1944 0
1287 1911 1946 0
1287 1913 1948 0
1287 1915 1950 0
1287 1917 1952 0
1287 1919 1954 0
1287 1921 1956 0
1287 1923 1958 0
1287 1925 1960 0
1249 1319 0
1251 1351 0
1253 1383 0
1255 1415 0
1257 1447 0
1259 1479 0
1261 1511 0
1263 1543 0
1265 1575 0
1267 1607 0
1269 1639 0
1271 1671 0
1273 1703 0
1275 1735 0
1277 1767 0
1279 1799 0
1281 1831 0
1283 1863 0
1285 1895 0
1287 1927 0
1 1962 0
13 1972 0
15 1982 0
17 1992 0
19 2002 0
21 2012 0
43 2022 0
45 2032 0
47 2042 0
49 2052 0
51 2062 0
73 2072 0
75 2082 0
77 2092 0
79 2102 0
81 2112 0
83 2122 0
85 2132 0
87 2142 0
89 2152 0
91 2162 0
1961 1972 0
1963 1974 0
1965 1976 0
1967 1978 0
1969 1980 0
1971 1982 0
1973 1984 0
1975 1986 0
1977 1988 0
1979 1990 0
1981 1992 0
1983 1994 0
1985 1996 0
1987 1998 0
1989 2000 0
1991 2002 0
1993 2004 0
1995 2006 0
1997 2008 0
1999 2010 0
2001 2012 0
2003 2014 0
2005 2016 0
2007 2018 0
2009 2020 0
2011 2022 0
2013 2024 0
2015 2026 0
2017 2028 0
2019 2030 0
2021 2032 0
2023 2034 0
2025 2036 0
2027 2038 0
2029 2040 0
2031 2042 0
2033 2044 0
2035 2046 0
2037 2048 0
2039 2050 0
2041 2052 0
2043 2054 0
2045 2056 0
2047 2058 0
2049 2060 0
2051 2062 0
2053 2064 0
2055 2066 0
2057 2068 0
2059 2070 0
2061 2072 0
2063 2074 0
2065 2076 0
2067 2078 0
2069 2080 0
2071 2082 0
2073 2084 0
2075 2086 0
2077 2088 0
2079 2090 0
2081 2092 0
2083 2094 0
2085 2096 0
2087 2098 0
2089 2100 0
2091 2102 0
2093 2104 0
2095 2106 0
2097 2108 0
2099 2110 0
2101 2112 0
2103 2114 0
2105 2116 0
2107 2118 0
2109 2120 0
2111 2122 0
2113 2124 0
2115 2126 0
2117 2128 0
2119 2130 0
2121 2132 0
2123 2134 0
2125 2136 0
2127 2138 0
2129 2140 0
2131 2142 0
2133 2144 0
2135 2146 0
2137 2148 0
2139 2150 0
2141 2152 0
2143 2154 0
2145 2156 0
2147 2158 0
2149 2160 0
2151 2162 0
2153 2164 0
2155 2166 0
2157 2168 0
2159 2170 0
13 1961 1974 0
13 1963 1976 0
13 1965 1978 0
13 1967 1980 0
15 1971 1984 0
15 1973 1986 0
15 1975 1988 0
15 1977 1990 0
17 1981 1994 0
17 1983 1996 0
17 1985 1998 0
17 1987 2000 0
19 1991 2004 0
19 1993 2006 0
19 1995 2008 0
19 1997 2010 0
21 2001 2014 0
21 2003 2016 0
21 2005 2018 0
21 2007 2020 0
43 2011 2024 0
43 2013 2026 0
43 2015 2028 0
43 2017 2030 0
45 2021 2034 0
45 2023 2036 0
45 2025 2038 0
45 2027 2040 0
47 2031 2044 0
47 2033 2046 0
47 2035 2048 0
47 2037 2050 0
49 2041 2054 0
49 2043 2056 0
49 2045 2058 0
49 2047 2060 0
51 2051 2064 0
51 2053 2066 0
51 2055 2068 0
51 2057 2070 0
73 2061 2074 0
73 2063 2076 0
73 2065 2078 0
73 2067 2080 0
75 2071 2084 0
75 2073 2086 0
75 2075 2088 0
75 2077 2090 0
77 2081 2094 0
77 2083 2096 0
77 2085 2098 0
77 2087 2100 0
79 2091 2104 0
79 2093 2106 0
79 2095 2108 0
79 2097 2110 0
81 2101 2114 0
81 2103 2116 0
81 2105 2118 0
81 2107 2120 0
83 2111 2124 0
83 2113 2126 0
83 2115 2128 0
83 2117 2130 0
85 2121 2134 0
85 2123 2136 0
85 2125 2138 0
85 2127 2140 0
87 2131 2144 0
87 2133 2146 0
87 2135 2148 0
87 2137 2150 0
89 2141 2154 0
89 2143 2156 0
89 2145 2158 0
89 2147 2160 0
91 2151 2164 0
91 2153 2166 0
91 2155 2168 0
91 2157 2170 0
13 1969 0
15 1979 0
17 1989 0
19 1999 0
21 2009 0
43 2019 0
45 2029 0
47 2039 0
49 2049 0
51 2059 0
73 2069 0
75 2079 0
77 2089 0
79 2099 0
81 2109 0
83 2119 0
85 2129 0
87 2139 0
89 2149 0
91 2159 0
2172 2 0
2171 1 0
2174 14 0
2173 13 0
2176 16 0
2175 15 0
2178 18 0
2177 17 0
2180 20 0
2179 19 0
2182 22 0
2181 21 0
2184 44 0
2183 43 0
2186 46 0
2185 45 0
2188 48 0
2187 47 0
2190 50 0
2189 49 0
2192 52 0
2191 51 0
2194 74 0
2193 73 0
2196 76 0
2195 75 0
2198 78 0
2197 77 0
2200 80 0
2199 79 0
2202 82 0
2201 81 0
2204 84 0
2203 83 0
2206 86 0
2205 85 0
2208 88 0
2207 87 0
2210 90 0
2209 89 0
2212 92 0
2211 91 0
2171 2214 0
2173 2246 0
2175 2278 0
2177 2310 0
2179 2342 0
2181 2374 0
2183 2406 0
2185 2438 0
2187 2470 0
2189 2502 0
2191 2534 0
2193 2566 0
2195 2598 0
2197 2630 0
2199 2662 0
2201 2694 0
2203 2726 0
2205 2758 0
2207 2790 0
2209 2822 0
2211 2854 0
2213 2246 0
2215 2248 0
2217 2250 0
2219 2252 0
2221 2254 0
2223 2256 0
2225 2258 0
2227 2260 0
2229 2262 0
2231 2264 0
2233 2266 0
2235 2268 0
2237 2270 0
2239 2272 0
2241 2274 0
2243 2276 0
2245 2278 0
2247 2280 0
2249 2282 0
2251 2284 0
2253 2286 0
2255 2288 0
2257 2290 0
2259 2292 0
2261 2294 0
2263 2296 0
2265 2298 0
2267 2300 0
2269 2302 0
2271 2304 0
2273 2306 0
2275 2308 0
2277 2310 0
2279 2312 0
2281 2314 0
2283 2316 0
2285 2318 0
2287 2320 0
2289 2322 0
2291 2324 0
2293 2326 0
2295 2328 0
2297 2330 0
2299 2332 0
2301 2334 0
2303 2336 0
2305 2338 0
2307 2340 0
2309 2342 0
2311 2344 0
2313 2346 0
2315 2348 0
2317 2350 0
2319 2352 0
2321 2354 0
2323 2356 0
2325 2358 0
2327 2360 0
2329 2362 0
2331 2364 0
2333 2366 0
2335 2368 0
2337 2370 0
2339 2372 0
2341 2374 0
2343 2376 0
2345 2378 0
2347 2380 0
2349 2382 0
2351 2384 0
2353 2386 0
2355 2388 0
2357 2390 0
2359 2392 0
2361 2394 0
2363 2396 0
2365 2398 0
2367 2400 0
2369 2402 0
2371 2404 0
2373 2406 0
2375 2408 0
2377 2410 0
2379 2412 0
2381 2414 0
2383 2416 0
2385 2418 0
2387 2420 0
2389 2422 0
2391 2424 0
2393 2426 0
2395 2428 0
2397 2430 0
2399 2432 0
2401 2434 0
2403 2436 0
2405 2438 0
2407 2440 0
2409 2442 0
2411 2444 0
2413 2446 0
2415 2448 0
2417 2450 0
2419 2452 0
2421 2454 0
2423 2456 0
2425 2458 0
2427 2460 0
2429 2462 0
2431 2464 0
2433 2466 0
2435 2468 0
2437 2470 0
2439 2472 0
2441 2474 0
2443 2476 0
2445 2478 0
2447 2480 0
2449 2482 0
2451 2484 0
2453 2486 0
2455 2488 0
2457 2490 0
2459 2492 0
2461 2494 0
2463 2496 0
2465 2498 0
2467 2500 0
2469 2502 0
2471 2504 0
2473 2506 0
2475 2508 0
2477 2510 0
2479 2512 0
2481 2514 0
2483 2516 0
2485 2518 0
2487 2520 0
2489 2522 0
2491 2524 0
2493 2526 0
2495 2528 0
2497 2530 0
2499 2532 0
2501 2534 0
2503 2536 0
2505 2538 0
2507 2540 0
2509 2542 0
2511 2544 0
2513 2546 0
2515 2548 0
2517 2550 0
2519 2552 0
2521 2554 0
2523 2556 0
2525 2558 0
2527 2560 0
2529 2562 0
2531 2564 0
2533 2566 0
2535 2568 0
2537 2570 0
2539 2572 0
2541 2574 0
2543 2576 0
2545 2578 0
2547 2580 0
2549 2582 0
2551 2584 0
2553 2586 0
2555 2588 0
2557 2590 0
2559 2592 0
2561 2594 0
2563 2596 0
2565 2598 0
2567 2600 0
2569 2602 0
2571 2604 0
2573 2606 0
2575 2608 0
2577 2610 0
2579 2612 0
2581 2614 0
2583 2616 0
2585 2618 0
2587 2620 0
2589 2622 0
2591 2624 0
2593 2626 0
2595 2628 0
2597 2630 0
2599 2632 0
2601 2634 0
2603 2636 0
2605 2638 0
2607 2640 0
2609 2642 0
2611 2644 0
2613 2646 0
2615 2648 0
2617 2650 0
2619 2652 0
2621 2654 0
2623 2656 0
2625 2658 0
2627 2660 0
2629 2662 0
2631 2664 0
2633 2666 0
2635 2668 0
2637 2670 0
2639 2672 0
2641 2674 0
2643 2676 0
2645 2678 0
2647 2680 0
2649 2682 0
2651 2684 0
2653 2686 0
2655 2688 0
2657 2690 0
2659 2692 0
2661 2694 0
2663 2696 0
2665 2698 0
2667 2700 0
2669 2702 0
2671 2704 0
2673 2706 0
2675 2708 0
2677 2710 0
2679 2712 0
2681 2714 0
2683 2716 0
2685 2718 0
2687 2720 0
2689 2722 0
2691 2724 0
2693 2726 0
2695 2728 0
2697 2730 0
2699 2732 0
2701 2734 0
2703 2736 0
2705 2738 0
2707 2740 0
2709 2742 0
2711 2744 0
2713 2746 0
2715 2748 0
2717 2750 0
2719 2752 0
2721 2754 0
2723 2756 0
2725 2758 0
2727 2760 0
2729 2762 0
2731 2764 0
2733 2766 0
2735 2768 0
2737 2770 0
2739 2772 0
2741 2774 0
2743 2776 0
2745 2778 0
2747 2780 0
2749 2782 0
2751 2784 0
2753 2786 0
2755 2788 0
2757 2790 0
2759 2792 0
2761 2794 0
2763 2796 0
2765 2798 0
2767 2800 0
2769 2802 0
2771 2804 0
2773 2806 0
2775 2808 0
2777 2810 0
2779 2812 0
2781 2814 0
2783 2816 0
2785 2818 0
2787 2820 0
2789 2822 0
2791 2824 0
2793 2826 0
2795 2828 0
2797 2830 0
2799 2832 0
2801 2834 0
2803 2836 0
2805 2838 0
2807 2840 0
2809 2842 0
2811 2844 0
2813 2846 0
2815 2848 0
2817 2850 0
2819 2852 0
2821 2854 0
2823 2856 0
2825 2858 0
2827 2860 0
2829 2862 0
2831 2864 0
2833 2866 0
2835 2868 0
2837 2870 0
2839 2872 0
2841 2874 0
2843 2876 0
2845 2878 0
2847 2880 0
2849 2882 0
2851 2884 0
2173 2213 2248 0
2173 2215 2250 0
2173 2217 2252 0
2173 2219 2254 0
2173 2221 2256 0
2173 2223 2258 0
2173 2225 2260 0
2173 2227 2262 0
2173 2229 2264 0
2173 2231 2266 0
2173 2233 2268 0
2173 2235 2270 0
2173 2237 2272 0
2173 2239 2274 0
2173 2241 2276 0
2175 2245 2280 0
2175 2247 2282 0
2175 2249 2284 0
2175 2251 2286 0
2175 2253 2288 0
2175 2255 2290 0
2175 2257 2292 0
2175 2259 2294 0
2175 2261 2296 0
2175 2263 2298 0
2175 2265 2300 0
2175 2267 2302 0
2175 2269 2304 0
2175 2271 2306 0
2175 2273 2308 0
2177 2277 2312 0
2177 2279 2314 0
2177 2281 2316 0
2177 2283 2318 0
2177 2285 2320 0
2177 2287 2322 0
2177 2289 2324 0
2177 2291 2326 0
2177 2293 2328 0
2177 2295 2330 0
2177 2297 2332 0
2177 2299 2334 0
2177 2301 2336 0
2177 2303 2338 0
2177 2305 2340 0
2179 2309 2344 0
2179 2311 2346 0
2179 2313 2348 0
2179 2315 2350 0
2179 2317 2352 0
2179 2319 2354 0
2179 2321 2356 0
2179 2323 2358 0
2179 2325 2360 0
2179 2327 2362 0
2179 2329 2364 0
2179 2331 2366 0
2179 2333 2368 0
2179 2335 2370 0
2179 2337 2372 0
2181 2341 2376 0
2181 2343 2378 0
2181 2345 2380 0
2181 2347 2382 0
2181 2349 2384 0
2181 2351 2386 0
2181 2353 2388 0
2181 2355 2390 0
2181 2357 2392 0
2181 2359 2394 0
2181 2361 2396 0
2181 2363 2398 0
2181 2365 2400 0
2181 2367 2402 0
2181 2369 2404 0
2183 2373 2408 0
2183 2375 2410 0
2183 2377 2412 0
2183 2379 2414 0
2183 2381 2416 0
2183 2383 2418 0
2183 2385 2420 0
2183 2387 2422 0
2183 2389 2424 0
2183 2391 2426 0
2183 2393 2428 0
2183 2395 2430 0
2183 2397 2432 0
2183 2399 2434 0
2183 2401 2436 0
2185 2405 2440 0
2185 2407 2442 0
2185 2409 2444 0
2185 2411 2446 0
2185 2413 2448 0
2185 2415 2450 0
2185 2417 2452 0
2185 2419 2454 0
2185 2421 2456 0
2185 2423 2458 0
2185 2425 2460 0
2185 2427 2462 0
2185 2429 2464 0
2185 2431 2466 0
2185 2433 2468 0
2187 2437 2472 0
2187 2439 2474 0
2187 2441 2476 0
2187 2443 2478 0
2187 2445 2480 0
2187 2447 2482 0
2187 2449 2484 0
2187 2451 2486 0
2187 2453 2488 0
2187 2455 2490 0
2187 2457 2492 0
2187 2459 2494 0
2187 2461 2496 0
2187 2463 2498 0
2187 2465 2500 0
2189 2469 2504 0
2189 2471 2506 0
2189 2473 2508 0
2189 2475 2510 0
2189 2477 2512 0
2189 2479 2514 0
2189 2481 2516 0
2189 2483 2518 0
2189 2485 2520 0
2189 2487 2522 0
2189 2489 2524 0
2189 2491 2526 0
2189 2493 2528 0
2189 2495 2530 0
2189 2497 2532 0
2191 2501 2536 0
2191 2503 2538 0
2191 2505 2540 0
2191 2507 2542 0
2191 2509 2544 0
2191 2511 2546 0
2191 2513 2548 0
2191 2515 2550 0
2191 2517 2552 0
2191 2519 2554 0
2191 2521 2556 0
2191 2523 2558 0
2191 2525 2560 0
2191 2527 2562 0
2191 2529 2564 0
2193 2533 2568 0
2193 2535 2570 0
2193 2537 2572 0
2193 2539 2574 0
2193 2541 2576 0
2193 2543 2578 0
2193 2545 2580 0
2193 2547 2582 0
2193 2549 2584 0
2193 2551 2586 0
2193 2553 2588 0
2193 2555 2590 0
2193 2557 2592 0
2193 2559 2594 0
2193 2561 2596 0
2195 2565 2600 0
2195 2567 2602 0
2195 2569 2604 0
2195 2571 2606 0
2195 2573 2608 0
2195 2575 2610 0
2195 2577 2612 0
2195 2579 2614 0
2195 2581 2616 0
2195 2583 2618 0
2195 2585 2620 0
2195 2587 2622 0
2195 2589 2624 0
2195 2591 2626 0
2195 2593 2628 0
2197 2597 2632 0
2197 2599 2634 0
2197 2601 2636 0
2197 2603 2638 0
2197 2605 2640 0
2197 2607 2642 0
2197 2609 2644 0
2197 2611 2646 0
2197 2613 2648 0
2197 2615 2650 0
2197 2617 2652 0
2197 2619 2654 0
2197 2621 2656 0
2197 2623 2658 0
2197 2625 2660 0
2199 2629 2664 0
2199 2631 2666 0
2199 2633 2668 0
2199 2635 2670 0
2199 2637 2672 0
2199 2639 2674 0
2199 2641 2676 0
2199 2643 2678 0
2199 2645 2680 0
2199 2647 2682 0
2199 2649 2684 0
2199 2651 2686 0
2199 2653 2688 0
2199 2655 2690 0
2199 2657 2692 0
2201 2661 2696 0
2201 2663 2698 0
2201 2665 2700 0
2201 2667 2702 0
2201 2669 2704 0
2201 2671 2706 0
2201 2673 2708 0
2201 2675 2710 0
2201 2677 2712 0
2201 2679 2714 0
2201 2681 2716 0
2201 2683 2718 0
2201 2685 2720 0
2201 2687 2722 0
2201 2689 2724 0
2203 2693 2728 0
2203 2695 2730 0
2203 2697 2732 0
2203 2699 2734 0
2203 2701 2736 0
2203 2703 2738 0
2203 2705 2740 0
2203 2707 2742 0
2203 2709 2744 0
2203 2711 2746 0
2203 2713 2748 0
2203 2715 2750 0
2203 2717 2752 0
2203 2719 2754 0
2203 2721 2756 0
2205 2725 2760 0
2205 2727 2762 0
2205 2729 2764 0
2205 2731 2766 0
2205 2733 2768 0
2205 2735 2770 0
2205 2737 2772 0
2205 2739 2774 0
2205 2741 2776 0
2205 2743 2778 0
2205 2745 2780 0
2205 2747 2782 0
2205 2749 2784 0
2205 2751 2786 0
2205 2753 2788 0
2207 2757 2792 0
2207 2759 2794 0
2207 2761 2796 0
2207 2763 2798 0
2207 2765 2800 0
2207 2767 2802 0
2207 2769 2804 0
2207 2771 2806 0
2207 2773 2808 0
2207 2775 2810 0
2207 2777 2812 0
2207 2779 2814 0
2207 2781 2816 0
2207 2783 2818 0
2207 2785 2820 0
2209 2789 2824 0
2209 2791 2826 0
2209 2793 2828 0
2209 2795 2830 0
2209 2797 2832 0
2209 2799 2834 0
2209 2801 2836 0
2209 2803 2838 0
2209 2805 2840 0
2209 2807 2842 0
2209 2809 2844 0
2209 2811 2846 0
2209 2813 2848 0
2209 2815 2850 0
2209 2817 2852 0
2211 2821 2856 0
2211 2823 2858 0
2211 2825 2860 0
2211 2827 2862 0
2211 2829 2864 0
2211 2831 2866 0
2211 2833 2868 0
2211 2835 2870 0
2211 2837 2872 0
2211 2839 2874 0
2211 2841 2876 0
2211 2843 2878 0
2211 2845 2880 0
2211 2847 2882 0
2211 2849 2884 0
2173 2243 0
2175 2275 0
2177 2307 0
2179 2339 0
2181 2371 0
2183 2403 0
2185 2435 0
2187 2467 0
2189 2499 0
2191 2531 0
2193 2563 0
2195 2595 0
2197 2627 0
2199 2659 0
2201 2691 0
2203 2723 0
2205 2755 0
2207 2787 0
2209 2819 0
2211 2851 0
3 2886 0
13 2896 0
23 2906 0
25 2916 0
27 2926 0
29 2936 0
43 2946 0
53 2956 0
55 2966 0
57 2976 0
59 2986 0
73 2996 0
75 3006 0
77 3016 0
79 3026 0
93 3036 0
95 3046 0
97 3056 0
99 3066 0
101 3076 0
103 3086 0
2885 2896 0
2887 2898 0
2889 2900 0
2891 2902 0
2893 2904 0
2895 2906 0
2897 2908 0
2899 2910 0
2901 2912 0
2903 2914 0
2905 2916 0
2907 2918 0
2909 2920 0
2911 2922 0
2913 2924 0
2915 2926 0
2917 2928 0
2919 2930 0
2921 2932 0
2923 2934 0
2925 2936 0
2927 2938 0
2929 2940 0
2931 2942 0
2933 2944 0
2935 2946 0
2937 2948 0
2939 2950 0
2941 2952 0
2943 2954 0
2945 2956 0
2947 2958 0
2949 2960 0
2951 2962 0
2953 2964 0
2955 2966 0
2957 2968 0
2959 2970 0
2961 2972 0
2963 2974 0
2965 2976 0
2967 2978 0
2969 2980 0
2971 2982 0
2973 2984 0
2975 2986 0
2977 2988 0
2979 2990 0
2981 2992 0
2983 2994 0
2985 2996 0
2987 2998 0
2989 3000 0
2991 3002 0
2993 3004 0
2995 3006 0
2997 3008 0
2999 3010 0
3001 3012 0
3003 3014 0
3005 3016 0
3007 3018 0
3009 3020 0
3011 3022 0
3013 3024 0
3015 3026 0
3017 3028 0
3019 3030 0
3021 3032 0
3023 3034 0
3025 3036 0
3027 3038 0
3029 3040 0
3031 3042 0
3033 3044 0
3035 3046 0
3037 3048 0
3039 3050 0
3041 3052 0
3043 3054 0
3045 3056 0
3047 3058 0
3049 3060 0
3051 3062 0
3053 3064 0
3055 3066 0
3057 3068 0
3059 3070 0
3061 3072 0
3063 3074 0
3065 3076 0
3067 3078 0
3069 3080 0
3071 3082 0
3073 3084 0
3075 3086 0
3077 3088 0
3079 3090 0
3081 3092 0
3083 3094 0
13 2885 2898 0
13 2887 2900 0
13 2889 2902 0
13 2891 2904 0
23 2895 2908 0
23 2897 2910 0
23 2899 2912 0
23 2901 2914 0
25 2905 2918 0
25 2907 2920 0
25 2909 2922 0
25 2911 2924 0
27 2915 2928 0
27 2917 2930 0
27 2919 2932 0
27 2921 2934 0
29 2925 2938 0
29 2927 2940 0
29 2929 2942 0
29 2931 2944 0
43 2935 2948 0
43 2937 2950 0
43 2939 2952 0
43 2941 2954 0
53 2945 2958 0
53 2947 2960 0
53 2949 2962 0
53 2951 2964 0
55 2955 2968 0
55 2957 2970 0
55 2959 2972 0
55 2961 2974 0
57 2965 2978 0
57 2967 2980 0
57 2969 2982 0
57 2971 2984 0
59 2975 2988 0
59 2977 2990 0
59 2979 2992 0
59 2981 2994 0
73 2985 2998 0
73 2987 3000 0
73 2989 3002 0
73 2991 3004 0
75 2995 3008 0
75 2997 3010 0
75 2999 3012 0
75 3001 3014 0
77 3005 3018 0
77 3007 3020 0
77 3009 3022 0
77 3011 3024 0
79 3015 3028 0
79 3017 3030 0
79 3019 3032 0
79 3021 3034 0
93 3025 3038 0
93 3027 3040 0
93 3029 3042 0
93 3031 3044 0
95 3035 3048 0
95 3037 3050 0
95 3039 3052 0
95 3041 3054 0
97 3045 3058 0
97 3047 3060 0
97 3049 3062 0
97 3051 3064 0
99 3055 3068 0
99 3057 3070 0
99 3059 3072 0
99 3061 3074 0
101 3065 3078 0
101 3067 3080 0
101 3069 3082 0
101 3071 3084 0
103 3075 3088 0
103 3077 3090 0
103 3079 3092 0
103 3081 3094 0
13 2893 0
23 2903 0
25 2913 0
27 2923 0
29 2933 0
43 2943 0
53 2953 0
55 2963 0
57 2973 0
59 2983 0
73 2993 0
75 3003 0
77 3013 0
79 3023 0
93 3033 0
95 3043 0
97 3053 0
99 3063 0
101 3073 0
103 3083 0
3096 4 0
3095 3 0
3098 14 0
3097 13 0
3100 24 0
3099 23 0
3102 26 0
3101 25 0
3104 28 0
3103 27 0
3106 30 0
3105 29 0
3108 44 0
3107 43 0
3110 54 0
3109 53 0
3112 56 0
3111 55 0
3114 58 0
3113 57 0
3116 60 0
3115 59 0
3118 74 0
3117 73 0
3120 76 0
3119 75 0
3122 78 0
3121 77 0
3124 80 0
3123 79 0
3126 94 0
3125 93 0
3128 96 0
3127 95 0
3130 98 0
3129 97 0
3132 100 0
3131 99 0
3134 102 0
3133 101 0
3136 104 0
3135 103 0
3095 3138 0
3097 3170 0
3099 3202 0
3101 3234 0
3103 3266 0
3105 3298 0
3107 3330 0
3109 3362 0
3111 3394 0
3113 3426 0
3115 3458 0
3117 3490 0
3119 3522 0
3121 3554 0
3123 3586 0
3125 3618 0
3127 3650 0
3129 3682 0
3131 3714 0
3133 3746 0
3135 3778 0
3137 3170 0
3139 3172 0
3141 3174 0
3143 3176 0
3145 3178 0
3147 3180 0
3149 3182 0
3151 3184 0
3153 3186 0
3155 3188 0
3157 3190 0
3159 3192 0
3161 3194 0
3163 3196 0
3165 3198 0
3167 3200 0
3169 3202 0
3171 3204 0
3173 3206 0
3175 3208 0
3177 3210 0
3179 3212 0
3181 3214 0
3183 3216 0
3185 3218 0
3187 3220 0
3189 3222 0
3191 3224 0
3193 3226 0
3195 3228 0
3197 3230 0
3199 3232 0
3201 3234 0
3203 3236 0
3205 3238 0
3207 3240 0
3209 3242 0
3211 3244 0
3213 3246 0
3215 3248 0
3217 3250 0
3219 3252 0
3221 3254 0
3223 3256 0
3225 3258 0
3227 3260 0
3229 3262 0
3231 3264 0
3233 3266 0
3235 3268 0
3237 3270 0
3239 3272 0
3241 3274 0
3243 3276 0
3245 3278 0
3247 3280 0
3249 3282 0
3251 3284 0
3253 3286 0
3255 3288 0
3257 3290 0
3259 3292 0
3261 3294 0
3263 3296 0
3265 3298 0
3267 3300 0
3269 3302 0
3271 3304 0
3273 3306 0
3275 3308 0
3277 3310 0
3279 3312 0
3281 3314 0
3283 3316 0
3285 3318 0
3287 3320 0
3289 3322 0
3291 3324 0
3293 3326 0
3295 3328 0
3297 3330 0
3299 3332 0
3301 3334 0
3303 3336 0
3305 3338 0
3307 3340 0
3309 3342 0
3311 3344 0
3313 3346 0
3315 3348 0
3317 3350 0
3319 3352 0
3321 3354 0
3323 3356 0
3325 3358 0
3327 3360 0
3329 3362 0
3331 3364 0
3333 3366 0
3335 3368 0
3337 3370 0
3339 3372 0
3341 3374 0
3343 3376 0
3345 3378 0
3347 3380 0
3349 3382 0
3351 3384 0
3353 3386 0
3355 3388 0
3357 3390 0
3359 3392 0
3361 3394 0
3363 3396 0
3365 3398 0
3367 3400 0
3369 3402 0
3371 3404 0
3373 3406 0
3375 3408 0
3377 3410 0
3379 3412 0
3381 3414 0
3383 3416 0
3385 3418 0
3387 3420 0
3389 3422 0
3391 3424 0
3393 3426 0
3395 3428 0
3397 3430 0
3399 3432 0
3401 3434 0
3403 3436 0
3405 3438 0
3407 3440 0
3409 3442 0
3411 3444 0
3413 3446 0
3415 3448 0
3417 3450 0
3419 3452 0
3421 3454 0
3423 3456 0
3425 3458 0
3427 3460 0
3429 3462 0
3431 3464 0
3433 3466 0
3435 3468 0
3437 3470 0
3439 3472 0
3441 3474 0
3443 3476 0
3445 3478 0
3447 3480 0
3449 3482 0
3451 3484 0
3453 3486 0
3455 3488 0
3457 3490 0
3459 3492 0
3461 3494 0
3463 3496 0
3465 3498 0
3467 3500 0
3469 3502 0
3471 3504 0
3473 3506 0
3475 3508 0
3477 3510 0
3479 3512 0
3481 3514 0
3483 3516 0
3485 3518 0
3487 3520 0
3489 3522 0
3491 3524 0
3493 3526 0
3495 3528 0
3497 3530 0
3499 3532 0
3501 3534 0
3503 3536 0
3505 3538 0
3507 3540 0
3509 3542 0
3511 3544 0
3513 3546 0
3515 3548 0
3517 3550 0
3519 3552 0
3521 3554 0
3523 3556 0
3525 3558 0
3527 3560 0
3529 3562 0
3531 3564 0
3533 3566 0
3535 3568 0
3537 3570 0
3539 3572 0
3541 3574 0
3543 3576 0
3545 3578 0
3547 3580 0
3549 3582 0
3551 3584 0
3553 3586 0
3555 3588 0
3557 3590 0
3559 3592 0
3561 3594 0
3563 3596 0
3565 3598 0
3567 3600 0
3569 3602 0
3571 3604 0
3573 3606 0
3575 3608 0
3577 3610 0
3579 3612 0
3581 3614 0
3583 3616 0
3585 3618 0
3587 3620 0
3589 3622 0
3591 3624 0
3593 3626 0
3595 3628 0
3597 3630 0
3599 3632 0
3601 3634 0
3603 3636 0
3605 3638 0
3607 3640 0
3609 3642 0
3611 3644 0
3613 3646 0
3615 3648 0
3617 3650 0
3619 3652 0
3621 3654 0
3623 3656 0
3625 3658 0
3627 3660 0
3629 3662 0
3631 3664 0
3633 3666 0
3635 3668 0
3637 3670 0
3639 3672 0
3641 3674 0
3643 3676 0
3645 3678 0
3647 3680 0
3649 3682 0
3651 3684 0
3653 3686 0
3655 3688 0
3657 3690 0
3659 3692 0
3661 3694 0
3663 3696 0
3665 3698 0
3667 3700 0
3669 3702 0
3671 3704 0
3673 3706 0
3675 3708 0
3677 3710 0
3679 3712 0
3681 3714 0
3683 3716 0
3685 3718 0
3687 3720 0
3689 3722 0
3691 3724 0
3693 3726 0
3695 3728 0
3697 3730 0
3699 3732 0
3701 3734 0
3703 3736 0
3705 3738 0
3707 3740 0
3709 3742 0
3711 3744 0
3713 3746 0
3715 3748 0
3717 3750 0
3719 3752 0
3721 3754 0
3723 3756 0
3725 3758 0
3727 3760 0
3729 3762 0
3731 3764 0
3733 3766 0
3735 3768 0
3737 3770 0
3739 3772 0
3741 3774 0
3743 3776 0
3745 3778 0
3747 3780 0
3749 3782 0
3751 3784 0
3753 3786 0
3755 3788 0
3757 3790 0
3759 3792 0
3761 3794 0
3763 3796 0
3765 3798 0
3767 3800 0
3769 3802 0
3771 3804 0
3773 3806 0
3775 3808 0
3097 3137 3172 0
3097 3139 3174 0
3097 3141 3176 0
3097 3143 3178 0
3097 3145 3180 0
3097 3147 3182 0
3097 3149 3184 0
3097 3151 3186 0
3097 3153 3188 0
3097 3155 3190 0
3097 3157 3192 0
3097 3159 3194 0
3097 3161 3196 0
3097 3163 3198 0
3097 3165 3200 0
3099 3169 3204 0
3099 3171 3206 0
3099 3173 3208 0
3099 3175 3210 0
3099 3177 3212 0
3099 3179 3214 0
3099 3181 3216 0
3099 3183 3218 0
3099 3185 3220 0
3099 3187 3222 0
3099 3189 3224 0
3099 3191 3226 0
3099 3193 3228 0
3099 3195 3230 0
3099 3197 3232 0
3101 3201 3236 0
3101 3203 3238 0
3101 3205 3240 0
3101 3207 3242 0
3101 3209 3244 0
3101 3211 3246 0
3101 3213 3248 0
3101 3215 3250 0
3101 3217 3252 0
3101 3219 3254 0
3101 3221 3256 0
3101 3223 3258 0
3101 3225 3260 0
3101 3227 3262 0
3101 3229 3264 0
3103 3233 3268 0
3103 3235 3270 0
3103 3237 3272 0
3103 3239 3274 0
3103 3241 3276 0
3103 3243 3278 0
3103 3245 3280 0
3103 3247 3282 0
3103 3249 3284 0
3103 3251 3286 0
3103 3253 3288 0
3103 3255 3290 0
3103 3257 3292 0
3103 3259 3294 0
3103 3261 3296 0
3105 3265 3300 0
3105 3267 3302 0
3105 3269 3304 0
3105 3271 3306 0
3105 3273 3308 0
3105 3275 3310 0
3105 3277 3312 0
3105 3279 3314 0
3105 3281 3316 0
3105 3283 3318 0
3105 3285 3320 0
3105 3287 3322 0
3105 3289 3324 0
3105 3291 3326 0
3105 3293 3328 0
3107 3297 3332 0
3107 3299 3334 0
3107 3301 3336 0
3107 3303 3338 0
3107 3305 3340 0
3107 3307 3342 0
3107 3309 3344 0
3107 3311 3346 0
3107 3313 3348 0
3107 3315 3350 0
3107 3317 3352 0
3107 3319 3354 0
3107 3321 3356 0
3107 3323 3358 0
3107 3325 3360 0
3109 3329 3364 0
3109 3331 3366 0
3109 3333 3368 0
3109 3335 3370 0
3109 3337 3372 0
3109 3339 3374 0
3109 3341 3376 0
3109 3343 3378 0
3109 3345 3380 0
3109 3347 3382 0
3109 3349 3384 0
3109 3351 3386 0
3109 3353 3388 0
3109 3355 3390 0
3109 3357 3392 0
3111 3361 3396 0
3111 3363 3398 0
3111 3365 3400 0
3111 3367 3402 0
3111 3369 3404 0
3111 3371 3406 0
3111 3373 3408 0
3111 3375 3410 0
3111 3377 3412 0
3111 3379 3414 0
3111 3381 3416 0
3111 3383 3418 0
3111 3385 3420 0
3111 3387 3422 0
3111 3389 3424 0
3113 3393 3428 0
3113 3395 3430 0
3113 3397 3432 0
3113 3399 3434 0
3113 3401 3436 0
3113 3403 3438 0
3113 3405 3440 0
3113 3407 3442 0
3113 3409 3444 0
3113 3411 3446 0
3113 3413 3448 0
3113 3415 3450 0
3113 3417 3452 0
3113 3419 3454 0
3113 3421 3456 0
3115 3425 3460 0
3115 3427 3462 0
3115 3429 3464 0
3115 3431 3466 0
3115 3433 3468 0
3115 3435 3470 0
3115 3437 3472 0
3115 3439 3474 0
3115 3441 3476 0
3115 3443 3478 0
3115 3445 3480 0
3115 3447 3482 0
3115 3449 3484 0
3115 3451 3486 0
3115 3453 3488 0
3117 3457 3492 0
3117 3459 3494 0
3117 3461 3496 0
3117 3463 3498 0
3117 3465 3500 0
3117 3467 3502 0
3117 3469 3504 0
3117 3471 3506 0
3117 3473 3508 0
3117 3475 3510 0
3117 3477 3512 0
3117 3479 3514 0
3117 3481 3516 0
3117 3483 3518 0
3117 3485 3520 0
3119 3489 3524 0
3119 3491 3526 0
3119 3493 3528 0
3119 3495 3530 0
3119 3497 3532 0
3119 3499 3534 0
3119 3501 3536 0
3119 3503 3538 0
3119 3505 3540 0
3119 3507 3542 0
3119 3509 3544 0
3119 3511 3546 0
3119 3513 3548 0
3119 3515 3550 0
3119 3517 3552 0
3121 3521 3556 0
3121 3523 3558 0
3121 3525 3560 0
3121 3527 3562 0
3121 3529 3564 0
3121 3531 3566 0
3121 3533 3568 0
3121 3535 3570 0
3121 3537 3572 0
3121 3539 3574 0
3121 3541 3576 0
3121 3543 3578 0
3121 3545 3580 0
3121 3547 3582 0
3121 3549 3584 0
3123 3553 3588 0
3123 3555 3590 0
3123 3557 3592 0
3123 3559 3594 0
3123 3561 3596 0
3123 3563 3598 0
3123 3565 3600 0
3123 3567 3602 0
3123 3569 3604 0
3123 3571 3606 0
3123 3573 3608 0
3123 3575 3610 0
3123 3577 3612 0
3123 3579 3614 0
3123 3581 3616 0
3125 3585 3620 0
3125 3587 3622 0
3125 3589 3624 0
3125 3591 3626 0
3125 3593 3628 0
3125 3595 3630 0
3125 3597 3632 0
3125 3599 3634 0
3125 3601 3636 0
3125 3603 3638 0
3125 3605 3640 0
3125 3607 3642 0
3125 3609 3644 0
3125 3611 3646 0
3125 3613 3648 0
3127 3617 3652 0
3127 3619 3654 0
3127 3621 3656 0
3127 3623 3658 0
3127 3625 3660 0
3127 3627 3662 0
3127 3629 3664 0
3127 3631 3666 0
3127 3633 3668 0
3127 3635 3670 0
3127 3637 3672 0
3127 3639 3674 0
3127 3641 3676 0
3127 3643 3678 0
3127 3645 3680 0
3129 3649 3684 0
3129 3651 3686 0
3129 3653 3688 0
3129 3655 3690 0
3129 3657 3692 0
3129 3659 3694 0
3129 3661 3696 0
3129 3663 3698 0
3129 3665 3700 0
3129 3667 3702 0
3129 3669 3704 0
3129 3671 3706 0
3129 3673 3708 0
3129 3675 3710 0
3129 3677 3712 0
3131 3681 3716 0
3131 3683 3718 0
3131 3685 3720 0
3131 3687 3722 0
3131 3689 3724 0
3131 3691 3726 0
3131 3693 3728 0
3131 3695 3730 0
3131 3697 3732 0
3131 3699 3734 0
3131 3701 3736 0
3131 3703 3738 0
3131 3705 3740 0
3131 3707 3742 0
3131 3709 3744 0
3133 3713 3748 0
3133 3715 3750 0
3133 3717 3752 0
3133 3719 3754 0
3133 3721 3756 0
3133 3723 3758 0
3133 3725 3760 0
3133 3727 3762 0
3133 3729 3764 0
3133 3731 3766 0
3133 3733 3768 0
3133 3735 3770 0
3133 3737 3772 0
3133 3739 3774 0
3133 3741 3776 0
3135 3745 3780 0
3135 3747 3782 0
3135 3749 3784 0
3135 3751 3786 0
3135 3753 3788 0
3135 3755 3790 0
3135 3757 3792 0
3135 3759 3794 0
3135 3761 3796 0
3135 3763 3798 0
3135 3765 3800 0
3135 3767 3802 0
3135 3769 3804 0
3135 3771 3806 0
3135 3773 3808 0
3097 3167 0
3099 3199 0
3101 3231 0
3103 3263 0
3105 3295 0
3107 3327 0
3109 3359 0
3111 3391 0
3113 3423 0
3115 3455 0
3117 3487 0
3119 3519 0
3121 3551 0
3123 3583 0
3125 3615 0
3127 3647 0
3129 3679 0
3131 3711 0
3133 3743 0
3135 3775 0
5 3810 0
15 3818 0
23 3826 0
31 3834 0
33 3842 0
35 3850 0
45 3858 0
53 3866 0
61 3874 0
63 3882 0
65 3890 0
73 3898 0
81 3906 0
83 3914 0
85 3922 0
93 3930 0
95 3938 0
97 3946 0
105 3954 0
107 3962 0
109 3970 0
3809 3818 0
3811 3820 0
3813 3822 0
3815 3824 0
3817 3826 0
3819 3828 0
3821 3830 0
3823 3832 0
3825 3834 0
3827 3836 0
3829 3838 0
3831 3840 0
3833 3842 0
3835 3844 0
3837 3846 0
3839 3848 0
3841 3850 0
3843 3852 0
3845 3854 0
3847 3856 0
3849 3858 0
3851 3860 0
3853 3862 0
3855 3864 0
3857 3866 0
3859 3868 0
3861 3870 0
3863 3872 0
3865 3874 0
3867 3876 0
3869 3878 0
3871 3880 0
3873 3882 0
3875 3884 0
3877 3886 0
3879 3888 0
3881 3890 0
3883 3892 0
3885 3894 0
3887 3896 0
3889 3898 0
3891 3900 0
3893 3902 0
3895 3904 0
3897 3906 0
3899 3908 0
3901 3910 0
3903 3912 0
3905 3914 0
3907 3916 0
3909 3918 0
3911 3920 0
3913 3922 0
3915 3924 0
3917 3926 0
3919 3928 0
3921 3930 0
3923 3932 0
3925 3934 0
3927 3936 0
3929 3938 0
3931 3940 0
3933 3942 0
3935 3944 0
3937 3946 0
3939 3948 0
3941 3950 0
3943 3952 0
3945 3954 0
3947 3956 0
3949 3958 0
3951 3960 0
3953 3962 0
3955 3964 0
3957 3966 0
3959 3968 0
3961 3970 0
3963 3972 0
3965 3974 0
3967 3976 0
15 3809 3820 0
15 3811 3822 0
15 3813 3824 0
23 3817 3828 0
23 3819 3830 0
23 3821 3832 0
31 3825 3836 0
31 3827 3838 0
31 3829 3840 0
33 3833 3844 0
33 3835 3846 0
33 3837 3848 0
35 3841 3852 0
35 3843 3854 0
35 3845 3856 0
45 3849 3860 0
45 3851 3862 0
45 3853 3864 0
53 3857 3868 0
53 3859 3870 0
53 3861 3872 0
61 3865 3876 0
61 3867 3878 0
61 3869 3880 0
63 3873 3884 0
63 3875 3886 0
63 3877 3888 0
65 3881 3892 0
65 3883 3894 0
65 3885 3896 0
73 3889 3900 0
73 3891 3902 0
73 3893 3904 0
81 3897 3908 0
81 3899 3910 0
81 3901 3912 0
83 3905 3916 0
83 3907 3918 0
83 3909 3920 0
85 3913 3924 0
85 3915 3926 0
85 3917 3928 0
93 3921 3932 0
93 3923 3934 0
93 3925 3936 0
95 3929 3940 0
95 3931 3942 0
95 3933 3944 0
97 3937 3948 0
97 3939 3950 0
97 3941 3952 0
105 3945 3956 0
105 3947 3958 0
105 3949 3960 0
107 3953 3964 0
107 3955 3966 0
107 3957 3968 0
109 3961 3972 0
109 3963 3974 0
109 3965 3976 0
15 3815 0
23 3823 0
31 3831 0
33 3839 0
35 3847 0
45 3855 0
53 3863 0
61 3871 0
63 3879 0
65 3887 0
73 3895 0
81 3903 0
83 3911 0
85 3919 0
93 3927 0
95 3935 0
97 3943 0
105 3951 0
107 3959 0
109 3967 0
3978 6 0
3977 5 0
3980 16 0
3979 15 0
3982 24 0
3981 23 0
3984 32 0
3983 31 0
3986 34 0
3985 33 0
3988 36 0
3987 35 0
3990 46 0
3989 45 0
3992 54 0
3991 53 0
3994 62 0
3993 61 0
3996 64 0
3995 63 0
3998 66 0
3997 65 0
4000 74 0
3999 73 0
4002 82 0
4001 81 0
4004 84 0
4003 83 0
4006 86 0
4005 85 0
4008 94 0
4007 93 0
4010 96 0
4009 95 0
4012 98 0
4011 97 0
4014 106 0
4013 105 0
4016 108 0
4015 107 0
4018 110 0
4017 109 0
3977 4020 0
3979 4054 0
3981 4088 0
3983 4122 0
3985 4156 0
3987 4190 0
3989 4224 0
3991 4258 0
3993 4292 0
3995 4326 0
3997 4360 0
3999 4394 0
4001 4428 0
4003 4462 0
4005 4496 0
4007 4530 0
4009 4564 0
4011 4598 0
4013 4632 0
4015 4666 0
4017 4700 0
4019 4054 0
4021 4056 0
4023 4058 0
4025 4060 0
4027 4062 0
4029 4064 0
4031 4066 0
4033 4068 0
4035 4070 0
4037 4072 0
4039 4074 0
4041 4076 0
4043 4078 0
4045 4080 0
4047 4082 0
4049 4084 0
4051 4086 0
4053 4088 0
4055 4090 0
4057 4092 0
4059 4094 0
4061 4096 0
4063 4098 0
4065 4100 0
4067 4102 0
4069 4104 0
4071 4106 0
4073 4108 0
4075 4110 0
4077 4112 0
4079 4114 0
4081 4116 0
4083 4118 0
4085 4120 0
4087 4122 0
4089 4124 0
4091 4126 0
4093 4128 0
4095 4130 0
4097 4132 0
4099 4134 0
4101 4136 0
4103 4138 0
4105 4140 0
4107 4142 0
4109 4144 0
4111 4146 0
4113 4148 0
4115 4150 0
4117 4152 0
4119 4154 0
4121 4156 0
4123 4158 0
4125 4160 0
4127 4162 0
4129 4164 0
4131 4166 0
4133 4168 0
4135 4170 0
4137 4172 0
4139 4174 0
4141 4176 0
4143 4178 0
4145 4180 0
4147 4182 0
4149 4184 0
4151 4186 0
4153 4188 0
4155 4190 0
4157 4192 0
4159 4194 0
4161 4196 0
4163 4198 0
4165 4200 0
4167 4202 0
4169 4204 0
4171 4206 0
4173 4208 0
4175 4210 0
4177 4212 0
4179 4214 0
4181 4216 0
4183 4218 0
4185 4220 0
4187 4222 0
4189 4224 0
4191 4226 0
4193 4228 0
4195 4230 0
4197 4232 0
4199 4234 0
4201 4236 0
4203 4238 0
4205 4240 0
4207 4242 0
4209 4244 0
4211 4246 0
4213 4248 0
4215 4250 0
4217 4252 0
4219 4254 0
4221 4256 0
4223 4258 0
4225 4260 0
4227 4262 0
4229 4264 0
4231 4266 0
4233 4268 0
4235 4270 0
4237 4272 0
4239 4274 0
4241 4276 0
4243 4278 0
4245 4280 0
4247 4282 0
4249 4284 0
4251 4286 0
4253 4288 0
4255 4290 0
4257 4292 0
4259 4294 0
4261 4296 0
4263 4298 0
4265 4300 0
4267 4302 0
4269 4304 0
4271 4306 0
4273 4308 0
4275 4310 0
4277 4312 0
4279 4314 0
4281 4316 0
4283 4318 0
4285 4320 0
4287 4322 0
4289 4324 0
4291 4326 0
4293 4328 0
4295 4330 0
4297 4332 0
4299 4334 0
4301 4336 0
4303 4338 0
4305 4340 0
4307 4342 0
4309 4344 0
4311 4346 0
4313 4348 0
4315 4350 0
4317 4352 0
4319 4354 0
4321 4356 0
4323 4358 0
4325 4360 0
4327 4362 0
4329 4364 0
4331 4366 0
4333 4368 0
4335 4370 0
4337 4372 0
4339 4374 0
4341 4376 0
4343 4378 0
4345 4380 0
4347 4382 0
4349 4384 0
4351 4386 0
4353 4388 0
4355 4390 0
4357 4392 0
4359 4394 0
4361 4396 0
4363 4398 0
4365 4400 0
4367 4402 0
4369 4404 0
4371 4406 0
4373 4408 0
4375 4410 0
4377 4412 0
4379 4414 0
4381 4416 0
4383 4418 0
4385 4420 0
4387 4422 0
4389 4424 0
4391 4426 0
4393 4428 0
4395 4430 0
4397 4432 0
4399 4434 0
4401 4436 0
4403 4438 0
4405 4440 0
4407 4442 0
4409 4444 0
4411 4446 0
4413 4448 0
4415 4450 0
4417 4452 0
4419 4454 0
4421 4456 0
4423 4458 0
4425 4460 0
4427 4462 0
4429 4464 0
4431 4466 0
4433 4468 0
4435 4470 0
4437 4472 0
4439 4474 0
4441 4476 0
4443 4478 0
4445 4480 0
4447 4482 0
4449 4484 0
4451 4486 0
4453 4488 0
4455 4490 0
4457 4492 0
4459 4494 0
4461 4496 0
4463 4498 0
4465 4500 0
4467 4502 0
4469 4504 0
4471 4506 0
4473 4508 0
4475 4510 0
4477 4512 0
4479 4514 0
4481 4516 0
4483 4518 0
4485 4520 0
4487 4522 0
4489 4524 0
4491 4526 0
4493 4528 0
4495 4530 0
4497 4532 0
4499 4534 0
4501 4536 0
4503 4538 0
4505 4540 0
4507 4542 0
4509 4544 0
4511 4546 0
4513 4548 0
4515 4550 0
4517 4552 0
4519 4554 0
4521 4556 0
4523 4558 0
4525 4560 0
4527 4562 0
4529 4564 0
4531 4566 0
4533 4568 0
4535 4570 0
4537 4572 0
4539 4574 0
4541 4576 0
4543 4578 0
4545 4580 0
4547 4582 0
4549 4584 0
4551 4586 0
4553 4588 0
4555 4590 0
4557 4592 0
4559 4594 0
4561 4596 0
4563 4598 0
4565 4600 0
4567 4602 0
4569 4604 0
4571 4606 0
4573 4608 0
4575 4610 0
4577 4612 0
4579 4614 0
4581 4616 0
4583 4618 0
4585 4620 0
4587 4622 0
4589 4624 0
4591 4626 0
4593 4628 0
4595 4630 0
4597 4632 0
4599 4634 0
4601 4636 0
4603 4638 0
4605 4640 0
4607 4642 0
4609 4644 0
4611 4646 0
4613 4648 0
4615 4650 0
4617 4652 0
4619 4654 0
4621 4656 0
4623 4658 0
4625 4660 0
4627 4662 0
4629 4664 0
4631 4666 0
4633 4668 0
4635 4670 0
4637 4672 0
4639 4674 0
4641 4676 0
4643 4678 0
4645 4680 0
4647 4682 0
4649 4684 0
4651 4686 0
4653 4688 0
4655 4690 0
4657 4692 0
4659 4694 0
4661 4696 0
4663 4698 0
4665 4700 0
4667 4702 0
4669 4704 0
4671 4706 0
4673 4708 0
4675 4710 0
4677 4712 0
4679 4714 0
4681 4716 0
4683 4718 0
4685 4720 0
4687 4722 0
4689 4724 0
4691 4726 0
4693 4728 0
4695 4730 0
4697 4732 0
3979 4019 4056 0
3979 4021 4058 0
3979 4023 4060 0
3979 4025 4062 0
3979 4027 4064 0
3979 4029 4066 0
3979 4031 4068 0
3979 4033 4070 0
3979 4035 4072 0
3979 4037 4074 0
3979 4039 4076 0
3979 4041 4078 0
3979 4043 4080 0
3979 4045 4082 0
3979 4047 4084 0
3979 4049 4086 0
3981 4053 4090 0
3981 4055 4092 0
3981 4057 4094 0
3981 4059 4096 0
3981 4061 4098 0
3981 4063 4100 0
3981 4065 4102 0
3981 4067 4104 0
3981 4069 4106 0
3981 4071 4108 0
3981 4073 4110 0
3981 4075 4112 0
3981 4077 4114 0
3981 4079 4116 0
3981 4081 4118 0
3981 4083 4120 0
3983 4087 4124 0
3983 4089 4126 0
3983 4091 4128 0
3983 4093 4130 0
3983 4095 4132 0
3983 4097 4134 0
3983 4099 4136 0
3983 4101 4138 0
3983 4103 4140 0
3983 4105 4142 0
3983 4107 4144 0
3983 4109 4146 0
3983 4111 4148 0
3983 4113 4150 0
3983 4115 4152 0
3983 4117 4154 0
3985 4121 4158 0
3985 4123 4160 0
3985 4125 4162 0
3985 4127 4164 0
3985 4129 4166 0
3985 4131 4168 0
3985 4133 4170 0
3985 4135 4172 0
3985 4137 4174 0
3985 4139 4176 0
3985 4141 4178 0
3985 4143 4180 0
3985 4145 4182 0
3985 4147 4184 0
3985 4149 4186 0
3985 4151 4188 0
3987 4155 4192 0
3987 4157 4194 0
3987 4159 4196 0
3987 4161 4198 0
3987 4163 4200 0
3987 4165 4202 0
3987 4167 4204 0
3987 4169 4206 0
3987 4171 4208 0
3987 4173 4210 0
3987 4175 4212 0
3987 4177 4214 0
3987 4179 4216 0
3987 4181 4218 0
3987 4183 4220 0
3987 4185 4222 0
3989 4189 4226 0
3989 4191 4228 0
3989 4193 4230 0
3989 4195 4232 0
3989 4197 4234 0
3989 4199 4236 0
3989 4201 4238 0
3989 4203 4240 0
3989 4205 4242 0
3989 4207 4244 0
3989 4209 4246 0
3989 4211 4248 0
3989 4213 4250 0
3989 4215 4252 0
3989 4217 4254 0
3989 4219 4256 0
3991 4223 4260 0
3991 4225 4262 0
3991 4227 4264 0
3991 4229 4266 0
3991 4231 4268 0
3991 4233 4270 0
3991 4235 4272 0
3991 4237 4274 0
3991 4239 4276 0
3991 4241 4278 0
3991 4243 4280 0
3991 4245 4282 0
3991 4247 4284 0
3991 4249 4286 0
3991 4251 4288 0
3991 4253 4290 0
3993 4257 4294 0
3993 4259 4296 0
3993 4261 4298 0
3993 4263 4300 0
3993 4265 4302 0
3993 4267 4304 0
3993 4269 4306 0
3993 4271 4308 0
3993 4273 4310 0
3993 4275 4312 0
3993 4277 4314 0
3993 4279 4316 0
3993 4281 4318 0
3993 4283 4320 0
3993 4285 4322 0
3993 4287 4324 0
3995 4291 4328 0
3995 4293 4330 0
3995 4295 4332 0
3995 4297 4334 0
3995 4299 4336 0
3995 4301 4338 0
3995 4303 4340 0
3995 4305 4342 0
3995 4307 4344 0
3995 4309 4346 0
3995 4311 4348 0
3995 4313 4350 0
3995 4315 4352 0
3995 4317 4354 0
3995 4319 4356 0
3995 4321 4358 0
3997 4325 4362 0
3997 4327 4364 0
3997 4329 4366 0
3997 4331 4368 0
3997 4333 4370 0
3997 4335 4372 0
3997 4337 4374 0
3997 4339 4376 0
3997 4341 4378 0
3997 4343 4380 0
3997 4345 4382 0
3997 4347 4384 0
3997 4349 4386 0
3997 4351 4388 0
3997 4353 4390 0
3997 4355 4392 0
3999 4359 4396 0
3999 4361 4398 0
3999 4363 4400 0
3999 4365 4402 0
3999 4367 4404 0
3999 4369 4406 0
3999 4371 4408 0
3999 4373 4410 0
3999 4375 4412 0
3999 4377 4414 0
3999 4379 4416 0
3999 4381 4418 0
3999 4383 4420 0
3999 4385 4422 0
3999 4387 4424 0
3999 4389 4426 0
4001 4393 4430 0
4001 4395 4432 0
4001 4397 4434 0
4001 4399 4436 0
4001 4401 4438 0
4001 4403 4440 0
4001 4405 4442 0
4001 4407 4444 0
4001 4409 4446 0
4001 4411 4448 0
4001 4413 4450 0
4001 4415 4452 0
4001 4417 4454 0
4001 4419 4456 0
4001 4421 4458 0
4001 4423 4460 0
4003 4427 4464 0
4003 4429 4466 0
4003 4431 4468 0
4003 4433 4470 0
4003 4435 4472 0
4003 4437 4474 0
4003 4439 4476 0
4003 4441 4478 0
4003 4443 4480 0
4003 4445 4482 0
4003 4447 4484 0
4003 4449 4486 0
4003 4451 4488 0
4003 4453 4490 0
4003 4455 4492 0
4003 4457 4494 0
4005 4461 4498 0
4005 4463 4500 0
4005 4465 4502 0
4005 4467 4504 0
4005 4469 4506 0
4005 4471 4508 0
4005 4473 4510 0
4005 4475 4512 0
4005 4477 4514 0
4005 4479 4516 0
4005 4481 4518 0
4005 4483 4520 0
4005 4485 4522 0
4005 4487 4524 0
4005 4489 4526 0
4005 4491 4528 0
4007 4495 4532 0
4007 4497 4534 0
4007 4499 4536 0
4007 4501 4538 0
4007 4503 4540 0
4007 4505 4542 0
4007 4507 4544 0
4007 4509 4546 0
4007 4511 4548 0
4007 4513 4550 0
4007 4515 4552 0
4007 4517 4554 0
4007 4519 4556 0
4007 4521 4558 0
4007 4523 4560 0
4007 4525 4562 0
4009 4529 4566 0
4009 4531 4568 0
4009 4533 4570 0
4009 4535 4572 0
4009 4537 4574 0
4009 4539 4576 0
4009 4541 4578 0
4009 4543 4580 0
4009 4545 4582 0
4009 4547 4584 0
4009 4549 4586 0
4009 4551 4588 0
4009 4553 4590 0
4009 4555 4592 0
4009 4557 4594 0
4009 4559 4596 0
4011 4563 4600 0
4011 4565 4602 0
4011 4567 4604 0
4011 4569 4606 0
4011 4571 4608 0
4011 4573 4610 0
4011 4575 4612 0
4011 4577 4614 0
4011 4579 4616 0
4011 4581 4618 0
4011 4583 4620 0
4011 4585 4622 0
4011 4587 4624 0
4011 4589 4626 0
4011 4591 4628 0
4011 4593 4630 0
4013 4597 4634 0
4013 4599 4636 0
4013 4601 4638 0
4013 4603 4640 0
4013 4605 4642 0
4013 4607 4644 0
4013 4609 4646 0
4013 4611 4648 0
4013 4613 4650 0
4013 4615 4652 0
4013 4617 4654 0
4013 4619 4656 0
4013 4621 4658 0
4013 4623 4660 0
4013 4625 4662 0
4013 4627 4664 0
4015 4631 4668 0
4015 4633 4670 0
4015 4635 4672 0
4015 4637 4674 0
4015 4639 4676 0
4015 4641 4678 0
4015 4643 4680 0
4015 4645 4682 0
4015 4647 4684 0
4015 4649 4686 0
4015 4651 4688 0
4015 4653 4690 0
4015 4655 4692 0
4015 4657 4694 0
4015 4659 4696 0
4015 4661 4698 0
4017 4665 4702 0
4017 4667 4704 0
4017 4669 4706 0
4017 4671 4708 0
4017 4673 4710 0
4017 4675 4712 0
4017 4677 4714 0
4017 4679 4716 0
4017 4681 4718 0
4017 4683 4720 0
4017 4685 4722 0
4017 4687 4724 0
4017 4689 4726 0
4017 4691 4728 0
4017 4693 4730 0
4017 4695 4732 0
3979 4051 0
3981 4085 0
3983 4119 0
3985 4153 0
3987 4187 0
3989 4221 0
3991 4255 0
3993 4289 0
3995 4323 0
3997 4357 0
3999 4391 0
4001 4425 0
4003 4459 0
4005 4493 0
4007 4527 0
4009 4561 0
4011 4595 0
4013 4629 0
4015 4663 0
4017 4697 0
7 4734 0
17 4742 0
25 4750 0
31 4758 0
37 4766 0
39 4774 0
47 4782 0
55 4790 0
61 4798 0
67 4806 0
69 4814 0
75 4822 0
81 4830 0
87 4838 0
89 4846 0
93 4854 0
99 4862 0
101 4870 0
105 4878 0
107 4886 0
111 4894 0
4733 4742 0
4735 4744 0
4737 4746 0
4739 4748 0
4741 4750 0
4743 4752 0
4745 4754 0
4747 4756 0
4749 4758 0
4751 4760 0
4753 4762 0
4755 4764 0
4757 4766 0
4759 4768 0
4761 4770 0
4763 4772 0
4765 4774 0
4767 4776 0
4769 4778 0
4771 4780 0
4773 4782 0
4775 4784 0
4777 4786 0
4779 4788 0
4781 4790 0
4783 4792 0
4785 4794 0
4787 4796 0
4789 4798 0
4791 4800 0
4793 4802 0
4795 4804 0
4797 4806 0
4799 4808 0
4801 4810 0
4803 4812 0
4805 4814 0
4807 4816 0
4809 4818 0
4811 4820 0
4813 4822 0
4815 4824 0
4817 4826 0
4819 4828 0
4821 4830 0
4823 4832 0
4825 4834 0
4827 4836 0
4829 4838 0
4831 4840 0
4833 4842 0
4835 4844 0
4837 4846 0
4839 4848 0
4841 4850 0
4843 4852 0
4845 4854 0
4847 4856 0
4849 4858 0
4851 4860 0
4853 4862 0
4855 4864 0
4857 4866 0
4859 4868 0
4861 4870 0
4863 4872 0
4865 4874 0
4867 4876 0
4869 4878 0
4871 4880 0
4873 4882 0
4875 4884 0
4877 4886 0
4879 4888 0
4881 4890 0
4883 4892 0
4885 4894 0
4887 4896 0
4889 4898 0
4891 4900 0
17 4733 4744 0
17 4735 4746 0
17 4737 4748 0
25 4741 4752 0
25 4743 4754 0
25 4745 4756 0
31 4749 4760 0
31 4751 4762 0
31 4753 4764 0
37 4757 4768 0
37 4759 4770 0
37 4761 4772 0
39 4765 4776 0
39 4767 4778 0
39 4769 4780 0
47 4773 4784 0
47 4775 4786 0
47 4777 4788 0
55 4781 4792 0
55 4783 4794 0
55 4785 4796 0
61 4789 4800 0
61 4791 4802 0
61 4793 4804 0
67 4797 4808 0
67 4799 4810 0
67 4801 4812 0
69 4805 4816 0
69 4807 4818 0
69 4809 4820 0
75 4813 4824 0
75 4815 4826 0
75 4817 4828 0
81 4821 4832 0
81 4823 4834 0
81 4825 4836 0
87 4829 4840 0
87 4831 4842 0
87 4833 4844 0
89 4837 4848 0
89 4839 4850 0
89 4841 4852 0
93 4845 4856 0
93 4847 4858 0
93 4849 4860 0
99 4853 4864 0
99 4855 4866 0
99 4857 4868 0
101 4861 4872 0
101 4863 4874 0
101 4865 4876 0
105 4869 4880 0
105 4871 4882 0
105 4873 4884 0
107 4877 4888 0
107 4879 4890 0
107 4881 4892 0
111 4885 4896 0
111 4887 4898 0
111 4889 4900 0
17 4739 0
25 4747 0
31 4755 0
37 4763 0
39 4771 0
47 4779 0
55 4787 0
61 4795 0
67 4803 0
69 4811 0
75 4819 0
81 4827 0
87 4835 0
89 4843 0
93 4851 0
99 4859 0
101 4867 0
105 4875 0
107 4883 0
111 4891 0
4902 8 0
4901 7 0
4904 18 0
4903 17 0
4906 26 0
4905 25 0
4908 32 0
4907 31 0
4910 38 0
4909 37 0
4912 40 0
4911 39 0
4914 48 0
4913 47 0
4916 56 0
4915 55 0
4918 62 0
4917 61 0
4920 68 0
4919 67 0
4922 70 0
4921 69 0
4924 76 0
4923 75 0
4926 82 0
4925 81 0
4928 88 0
4927 87 0
4930 90 0
4929 89 0
4932 94 0
4931 93 0
4934 100 0
4933 99 0
4936 102 0
4935 101 0
4938 106 0
4937 105 0
4940 108 0
4939 107 0
4942 112 0
4941 111 0
4901 4944 0
4903 4978 0
4905 5012 0
4907 5046 0
4909 5080 0
4911 5114 0
4913 5148 0
4915 5182 0
4917 5216 0
4919 5250 0
4921 5284 0
4923 5318 0
4925 5352 0
4927 5386 0
4929 5420 0
4931 5454 0
4933 5488 0
4935 5522 0
4937 5556 0
4939 5590 0
4941 5624 0
4943 4978 0
4945 4980 0
4947 4982 0
4949 4984 0
4951 4986 0
4953 4988 0
4955 4990 0
4957 4992 0
4959 4994 0
4961 4996 0
4963 4998 0
4965 5000 0
4967 5002 0
4969 5004 0
4971 5006 0
4973 5008 0
4975 5010 0
4977 5012 0
4979 5014 0
4981 5016 0
4983 5018 0
4985 5020 0
4987 5022 0
4989 5024 0
4991 5026 0
4993 5028 0
4995 5030 0
4997 5032 0
4999 5034 0
5001 5036 0
5003 5038 0
5005 5040 0
5007 5042 0
5009 5044 0
5011 5046 0
5013 5048 0
5015 5050 0
5017 5052 0
5019 5054 0
5021 5056 0
5023 5058 0
5025 5060 0
5027 5062 0
5029 5064 0
5031 5066 0
5033 5068 0
5035 5070 0
5037 5072 0
5039 5074 0
5041 5076 0
5043 5078 0
5045 5080 0
5047 5082 0
5049 5084 0
5051 5086 0
5053 5088 0
5055 5090 0
5057 5092 0
5059 5094 0
5061 5096 0
5063 5098 0
5065 5100 0
5067 5102 0
5069 5104 0
5071 5106 0
5073 5108 0
5075 5110 0
5077 5112 0
5079 5114 0
5081 5116 0
5083 5118 0
5085 5120 0
5087 5122 0
5089 5124 0
5091 5126 0
5093 5128 0
5095 5130 0
5097 5132 0
5099 5134 0
5101 5136 0
5103 5138 0
5105 5140 0
5107 5142 0
5109 5144 0
5111 5146 0
5113 5148 0
5115 5150 0
5117 5152 0
5119 5154 0
5121 5156 0
5123 5158 0
5125 5160 0
5127 5162 0
5129 5164 0
5131 5166 0
5133 5168 0
5135 5170 0
5137 5172 0
5139 5174 0
5141 5176 0
5143 5178 0
5145 5180 0
5147 5182 0
5149 5184 0
5151 5186 0
5153 5188 0
5155 5190 0
5157 5192 0
5159 5194 0
5161 5196 0
5163 5198 0
5165 5200 0
5167 5202 0
5169 5204 0
5171 5206 0
5173 5208 0
5175 5210 0
5177 5212 0
5179 5214 0
5181 5216 0
5183 5218 0
5185 5220 0
5187 5222 0
5189 5224 0
5191 5226 0
5193 5228 0
5195 5230 0
5197 5232 0
5199 5234 0
5201 5236 0
5203 5238 0
5205 5240 0
5207 5242 0
5209 5244 0
5211 5246 0
5213 5248 0
5215 5250 0
5217 5252 0
5219 5254 0
5221 5256 0
5223 5258 0
5225 5260 0
5227 5262 0
5229 5264 0
5231 5266 0
5233 5268 0
5235 5270 0
5237 5272 0
5239 5274 0
5241 5276 0
5243 5278 0
5245 5280 0
5247 5282 0
5249 5284 0
5251 5286 0
5253 5288 0
5255 5290 0
5257 5292 0
5259 5294 0
5261 5296 0
5263 5298 0
5265 5300 0
5267 5302 0
5269 5304 0
5271 5306 0
5273 5308 0
5275 5310 0
5277 5312 0
5279 5314 0
5281 5316 0
5283 5318 0
5285 5320 0
5287 5322 0
5289 5324 0
5291 5326 0
5293 5328 0
5295 5330 0
5297 5332 0
5299 5334 0
5301 5336 0
5303 5338 0
5305 5340 0
5307 5342 0
5309 5344 0
5311 5346 0
5313 5348 0
5315 5350 0
5317 5352 0
5319 5354 0
5321 5356 0
5323 5358 0
5325 5360 0
5327 5362 0
5329 5364 0
5331 5366 0
5333 5368 0
5335 5370 0
5337 5372 0
5339 5374 0
5341 5376 0
5343 5378 0
5345 5380 0
5347 5382 0
5349 5384 0
5351 5386 0
5353 5388 0
5355 5390 0
5357 5392 0
5359 5394 0
5361 5396 0
5363 5398 0
5365 5400 0
5367 5402 0
5369 5404 0
5371 5406 0
5373 5408 0
5375 5410 0
5377 5412 0
5379 5414 0
5381 5416 0
5383 5418 0
5385 5420 0
5387 5422 0
5389 5424 0
5391 5426 0
5393 5428 0
5395 5430 0
5397 5432 0
5399 5434 0
5401 5436 0
5403 5438 0
5405 5440 0
5407 5442 0
5409 5444 0
5411 5446 0
5413 5448 0
5415 5450 0
5417 5452 0
5419 5454 0
5421 5456 0
5423 5458 0
5425 5460 0
5427 5462 0
5429 5464 0
5431 5466 0
5433 5468 0
5435 5470 0
5437 5472 0
5439 5474 0
5441 5476 0
5443 5478 0
5445 5480 0
5447 5482 0
5449 5484 0
5451 5486 0
5453 5488 0
5455 5490 0
5457 5492 0
5459 5494 0
5461 5496 0
5463 5498 0
5465 5500 0
5467 5502 0
5469 5504 0
5471 5506 0
5473 5508 0
5475 5510 0
5477 5512 0
5479 5514 0
5481 5516 0
5483 5518 0
5485 5520 0
5487 5522 0
5489 5524 0
5491 5526 0
5493 5528 0
5495 5530 0
5497 5532 0
5499 5534 0
5501 5536 0
5503 5538 0
5505 5540 0
5507 5542 0
5509 5544 0
5511 5546 0
5513 5548 0
5515 5550 0
5517 5552 0
5519 5554 0
5521 5556 0
5523 5558 0
5525 5560 0
5527 5562 0
5529 5564 0
5531 5566 0
5533 5568 0
5535 5570 0
5537 5572 0
5539 5574 0
5541 5576 0
5543 5578 0
5545 5580 0
5547 5582 0
5549 5584 0
5551 5586 0
5553 5588 0
5555 5590 0
5557 5592 0
5559 5594 0
5561 5596 0
5563 5598 0
5565 5600 0
5567 5602 0
5569 5604 0
5571 5606 0
5573 5608 0
5575 5610 0
5577 5612 0
5579 5614 0
5581 5616 0
5583 5618 0
5585 5620 0
5587 5622 0
5589 5624 0
5591 5626 0
5593 5628 0
5595 5630 0
5597 5632 0
5599 5634 0
5601 5636 0
5603 5638 0
5605 5640 0
5607 5642 0
5609 5644 0
5611 5646 0
5613 5648 0
5615 5650 0
5617 5652 0
5619 5654 0
5621 5656 0
4903 4943 4980 0
4903 4945 4982 0
4903 4947 4984 0
4903 4949 4986 0
4903 4951 4988 0
4903 4953 4990 0
4903 4955 4992 0
4903 4957 4994 0
4903 4959 4996 0
4903 4961 4998 0
4903 4963 5000 0
4903 4965 5002 0
4903 4967 5004 0
4903 4969 5006 0
4903 4971 5008 0
4903 4973 5010 0
4905 4977 5014 0
4905 4979 5016 0
4905 4981 5018 0
4905 4983 5020 0
4905 4985 5022 0
4905 4987 5024 0
4905 4989 5026 0
4905 4991 5028 0
4905 4993 5030 0
4905 4995 5032 0
4905 4997 5034 0
4905 4999 5036 0
4905 5001 5038 0
4905 5003 5040 0
4905 5005 5042 0
4905 5007 5044 0
4907 5011 5048 0
4907 5013 5050 0
4907 5015 5052 0
4907 5017 5054 0
4907 5019 5056 0
4907 5021 5058 0
4907 5023 5060 0
4907 5025 5062 0
4907 5027 5064 0
4907 5029 5066 0
4907 5031 5068 0
4907 5033 5070 0
4907 5035 5072 0
4907 5037 5074 0
4907 5039 5076 0
4907 5041 5078 0
4909 5045 5082 0
4909 5047 5084 0
4909 5049 5086 0
4909 5051 5088 0
4909 5053 5090 0
4909 5055 5092 0
4909 5057 5094 0
4909 5059 5096 0
4909 5061 5098 0
4909 5063 5100 0
4909 5065 5102 0
4909 5067 5104 0
4909 5069 5106 0
4909 5071 5108 0
4909 5073 5110 0
4909 5075 5112 0
4911 5079 5116 0
4911 5081 5118 0
4911 5083 5120 0
4911 5085 5122 0
4911 5087 5124 0
4911 5089 5126 0
4911 5091 5128 0
4911 5093 5130 0
4911 5095 5132 0
4911 5097 5134 0
4911 5099 5136 0
4911 5101 5138 0
4911 5103 5140 0
4911 5105 5142 0
4911 5107 5144 0
4911 5109 5146 0
4913 5113 5150 0
4913 5115 5152 0
4913 5117 5154 0
4913 5119 5156 0
4913 5121 5158 0
4913 5123 5160 0
4913 5125 5162 0
4913 5127 5164 0
4913 5129 5166 0
4913 5131 5168 0
4913 5133 5170 0
4913 5135 5172 0
4913 5137 5174 0
4913 5139 5176 0
4913 5141 5178 0
4913 5143 5180 0
4915 5147 5184 0
4915 5149 5186 0
4915 5151 5188 0
4915 5153 5190 0
4915 5155 5192 0
4915 5157 5194 0
4915 5159 5196 0
4915 5161 5198 0
4915 5163 5200 0
4915 5165 5202 0
4915 5167 5204 0
4915 5169 5206 0
4915 5171 5208 0
4915 5173 5210 0
4915 5175 5212 0
4915 5177 5214 0
4917 5181 5218 0
4917 5183 5220 0
4917 5185 5222 0
4917 5187 5224 0
4917 5189 5226 0
4917 5191 5228 0
4917 5193 5230 0
4917 5195 5232 0
4917 5197 5234 0
4917 5199 5236 0
4917 5201 5238 0
4917 5203 5240 0
4917 5205 5242 0
4917 5207 5244 0
4917 5209 5246 0
4917 5211 5248 0
4919 5215 5252 0
4919 5217 5254 0
4919 5219 5256 0
4919 5221 5258 0
4919 5223 5260 0
4919 5225 5262 0
4919 5227 5264 0
4919 5229 5266 0
4919 5231 5268 0
4919 5233 5270 0
4919 5235 5272 0
4919 5237 5274 0
4919 5239 5276 0
4919 5241 5278 0
4919 5243 5280 0
4919 5245 5282 0
4921 5249 5286 0
4921 5251 5288 0
4921 5253 5290 0
4921 5255 5292 0
4921 5257 5294 0
4921 5259 5296 0
4921 5261 5298 0
4921 5263 5300 0
4921 5265 5302 0
4921 5267 5304 0
4921 5269 5306 0
4921 5271 5308 0
4921 5273 5310 0
4921 5275 5312 0
4921 5277 5314 0
4921 5279 5316 0
4923 5283 5320 0
4923 5285 5322 0
4923 5287 5324 0
4923 5289 5326 0
4923 5291 5328 0
4923 5293 5330 0
4923 5295 5332 0
4923 5297 5334 0
4923 5299 5336 0
4923 5301 5338 0
4923 5303 5340 0
4923 5305 5342 0
4923 5307 5344 0
4923 5309 5346 0
4923 5311 5348 0
4923 5313 5350 0
4925 5317 5354 0
4925 5319 5356 0
4925 5321 5358 0
4925 5323 5360 0
4925 5325 5362 0
4925 5327 5364 0
4925 5329 5366 0
4925 5331 5368 0
4925 5333 5370 0
4925 5335 5372 0
4925 5337 5374 0
4925 5339 5376 0
4925 5341 5378 0
4925 5343 5380 0
4925 5345 5382 0
4925 5347 5384 0
4927 5351 5388 0
4927 5353 5390 0
4927 5355 5392 0
4927 5357 5394 0
4927 5359 5396 0
4927 5361 5398 0
4927 5363 5400 0
4927 5365 5402 0
4927 5367 5404 0
4927 5369 5406 0
4927 5371 5408 0
4927 5373 5410 0
4927 5375 5412 0
4927 5377 5414 0
4927 5379 5416 0
4927 5381 5418 0
4929 5385 5422 0
4929 5387 5424 0
4929 5389 5426 0
4929 5391 5428 0
4929 5393 5430 0
4929 5395 5432 0
4929 5397 5434 0
4929 5399 5436 0
4929 5401 5438 0
4929 5403 5440 0
4929 5405 5442 0
4929 5407 5444 0
4929 5409 5446 0
4929 5411 5448 0
4929 5413 5450 0
4929 5415 5452 0
4931 5419 5456 0
4931 5421 5458 0
4931 5423 5460 0
4931 5425 5462 0
4931 5427 5464 0
4931 5429 5466 0
4931 5431 5468 0
4931 5433 5470 0
4931 5435 5472 0
4931 5437 5474 0
4931 5439 5476 0
4931 5441 5478 0
4931 5443 5480 0
4931 5445 5482 0
4931 5447 5484 0
4931 5449 5486 0
4933 5453 5490 0
4933 5455 5492 0
4933 5457 5494 0
4933 5459 5496 0
4933 5461 5498 0
4933 5463 5500 0
4933 5465 5502 0
4933 5467 5504 0
4933 5469 5506 0
4933 5471 5508 0
4933 5473 5510 0
4933 5475 5512 0
4933 5477 5514 0
4933 5479 5516 0
4933 5481 5518 0
4933 5483 5520 0
4935 5487 5524 0
4935 5489 5526 0
4935 5491 5528 0
4935 5493 5530 0
4935 5495 5532 0
4935 5497 5534 0
4935 5499 5536 0
4935 5501 5538 0
4935 5503 5540 0
4935 5505 5542 0
4935 5507 5544 0
4935 5509 5546 0
4935 5511 5548 0
4935 5513 5550 0
4935 5515 5552 0
4935 5517 5554 0
4937 5521 5558 0
4937 5523 5560 0
4937 5525 5562 0
4937 5527 5564 0
4937 5529 5566 0
4937 5531 5568 0
4937 5533 5570 0
4937 5535 5572 0
4937 5537 5574 0
4937 5539 5576 0
4937 5541 5578 0
4937 5543 5580 0
4937 5545 5582 0
4937 5547 5584 0
4937 5549 5586 0
4937 5551 5588 0
4939 5555 5592 0
4939 5557 5594 0
4939 5559 5596 0
4939 5561 5598 0
4939 5563 5600 0
4939 5565 5602 0
4939 5567 5604 0
4939 5569 5606 0
4939 5571 5608 0
4939 5573 5610 0
4939 5575 5612 0
4939 5577 5614 0
4939 5579 5616 0
4939 5581 5618 0
4939 5583 5620 0
4939 5585 5622 0
4941 5589 5626 0
4941 5591 5628 0
4941 5593 5630 0
4941 5595 5632 0
4941 5597 5634 0
4941 5599 5636 0
4941 5601 5638 0
4941 5603 5640 0
4941 5605 5642 0
4941 5607 5644 0
4941 5609 5646 0
4941 5611 5648 0
4941 5613 5650 0
4941 5615 5652 0
4941 5617 5654 0
4941 5619 5656 0
4903 4975 0
4905 5009 0
4907 5043 0
4909 5077 0
4911 5111 0
4913 5145 0
4915 5179 0
4917 5213 0
4919 5247 0
4921 5281 0
4923 5315 0
4925 5349 0
4927 5383 0
4929 5417 0
4931 5451 0
4933 5485 0
4935 5519 0
4937 5553 0
4939 5587 0
4941 5621 0
9 5658 0
19 5666 0
27 5674 0
33 5682 0
37 5690 0
41 5698 0
49 5706 0
57 5714 0
63 5722 0
67 5730 0
71 5738 0
77 5746 0
83 5754 0
87 5762 0
91 5770 0
95 5778 0
99 5786 0
103 5794 0
105 5802 0
109 5810 0
111 5818 0
5657 5666 0
5659 5668 0
5661 5670 0
5663 5672 0
5665 5674 0
5667 5676 0
5669 5678 0
5671 5680 0
5673 5682 0
5675 5684 0
5677 5686 0
5679 5688 0
5681 5690 0
5683 5692 0
5685 5694 0
5687 5696 0
5689 5698 0
5691 5700 0
5693 5702 0
5695 5704 0
5697 5706 0
5699 5708 0
5701 5710 0
5703 5712 0
5705 5714 0
5707 5716 0
5709 5718 0
5711 5720 0
5713 5722 0
5715 5724 0
5717 5726 0
5719 5728 0
5721 5730 0
5723 5732 0
5725 5734 0
5727 5736 0
5729 5738 0
5731 5740 0
5733 5742 0
5735 5744 0
5737 5746 0
5739 5748 0
5741 5750 0
5743 5752 0
5745 5754 0
5747 5756 0
5749 5758 0
5751 5760 0
5753 5762 0
5755 5764 0
5757 5766 0
5759 5768 0
5761 5770 0
5763 5772 0
5765 5774 0
5767 5776 0
5769 5778 0
5771 5780 0
5773 5782 0
5775 5784 0
5777 5786 0
5779 5788 0
5781 5790 0
5783 5792 0
5785 5794 0
5787 5796 0
5789 5798 0
5791 5800 0
5793 5802 0
5795 5804 0
5797 5806 0
5799 5808 0
5801 5810 0
5803 5812 0
5805 5814 0
5807 5816 0
5809 5818 0
5811 5820 0
5813 5822 0
5815 5824 0
19 5657 5668 0
19 5659 5670 0
19 5661 5672 0
27 5665 5676 0
27 5667 5678 0
27 5669 5680 0
33 5673 5684 0
33 5675 5686 0
33 5677 5688 0
37 5681 5692 0
37 5683 5694 0
37 5685 5696 0
41 5689 5700 0
41 5691 5702 0
41 5693 5704 0
49 5697 5708 0
49 5699 5710 0
49 5701 5712 0
57 5705 5716 0
57 5707 5718 0
57 5709 5720 0
63 5713 5724 0
63 5715 5726 0
63 5717 5728 0
67 5721 5732 0
67 5723 5734 0
67 5725 5736 0
71 5729 5740 0
71 5731 5742 0
71 5733 5744 0
77 5737 5748 0
77 5739 5750 0
77 5741 5752 0
83 5745 5756 0
83 5747 5758 0
83 5749 5760 0
87 5753 5764 0
87 5755 5766 0
87 5757 5768 0
91 5761 5772 0
91 5763 5774 0
91 5765 5776 0
95 5769 5780 0
95 5771 5782 0
95 5773 5784 0
99 5777 5788 0
99 5779 5790 0
99 5781 5792 0
103 5785 5796 0
103 5787 5798 0
103 5789 5800 0
105 5793 5804 0
105 5795 5806 0
105 5797 5808 0
109 5801 5812 0
109 5803 5814 0
109 5805 5816 0
111 5809 5820 0
111 5811 5822 0
111 5813 5824 0
19 5663 0
27 5671 0
33 5679 0
37 5687 0
41 5695 0
49 5703 0
57 5711 0
63 5719 0
67 5727 0
71 5735 0
77 5743 0
83 5751 0
87 5759 0
91 5767 0
95 5775 0
99 5783 0
103 5791 0
105 5799 0
109 5807 0
111 5815 0
5826 10 0
5825 9 0
5828 20 0
5827 19 0
5830 28 0
5829 27 0
5832 34 0
5831 33 0
5834 38 0
5833 37 0
5836 42 0
5835 41 0
5838 50 0
5837 49 0
5840 58 0
5839 57 0
5842 64 0
5841 63 0
5844 68 0
5843 67 0
5846 72 0
5845 71 0
5848 78 0
5847 77 0
5850 84 0
5849 83 0
5852 88 0
5851 87 0
5854 92 0
5853 91 0
5856 96 0
5855 95 0
5858 100 0
5857 99 0
5860 104 0
5859 103 0
5862 106 0
5861 105 0
5864 110 0
5863 109 0
5866 112 0
5865 111 0
5825 5868 0
5827 5902 0
5829 5936 0
5831 5970 0
5833 6004 0
5835 6038 0
5837 6072 0
5839 6106 0
5841 6140 0
5843 6174 0
5845 6208 0
5847 6242 0
5849 6276 0
5851 6310 0
5853 6344 0
5855 6378 0
5857 6412 0
5859 6446 0
5861 6480 0
5863 6514 0
5865 6548 0
5867 5902 0
5869 5904 0
5871 5906 0
5873 5908 0
5875 5910 0
5877 5912 0
5879 5914 0
5881 5916 0
5883 5918 0
5885 5920 0
5887 5922 0
5889 5924 0
5891 5926 0
5893 5928 0
5895 5930 0
5897 5932 0
5899 5934 0
5901 5936 0
5903 5938 0
5905 5940 0
5907 5942 0
5909 5944 0
5911 5946 0
5913 5948 0
5915 5950 0
5917 5952 0
5919 5954 0
5921 5956 0
5923 5958 0
5925 5960 0
5927 5962 0
5929 5964 0
5931 5966 0
5933 5968 0
5935 5970 0
5937 5972 0
5939 5974 0
5941 5976 0
5943 5978 0
5945 5980 0
5947 5982 0
5949 5984 0
5951 5986 0
5953 5988 0
5955 5990 0
5957 5992 0
5959 5994 0
5961 5996 0
5963 5998 0
5965 6000 0
5967 6002 0
5969 6004 0
5971 6006 0
5973 6008 0
5975 6010 0
5977 6012 0
5979 6014 0
5981 6016 0
5983 6018 0
5985 6020 0
5987 6022 0
5989 6024 0
5991 6026 0
5993 6028 0
5995 6030 0
5997 6032 0
5999 6034 0
6001 6036 0
6003 6038 0
6005 6040 0
6007 6042 0
6009 6044 0
6011 6046 0
6013 6048 0
6015 6050 0
6017 6052 0
6019 6054 0
6021 6056 0
6023 6058 0
6025 6060 0
6027 6062 0
6029 6064 0
6031 6066 0
6033 6068 0
6035 6070 0
6037 6072 0
6039 6074 0
6041 6076 0
6043 6078 0
6045 6080 0
6047 6082 0
6049 6084 0
6051 6086 0
6053 6088 0
6055 6090 0
6057 6092 0
6059 6094 0
6061 6096 0
6063 6098 0
6065 6100 0
6067 6102 0
6069 6104 0
6071 6106 0
6073 6108 0
6075 6110 0
6077 6112 0
6079 6114 0
6081 6116 0
6083 6118 0
6085 6120 0
6087 6122 0
6089 6124 0
6091 6126 0
6093 6128 0
6095 6130 0
6097 6132 0
6099 6134 0
6101 6136 0
6103 6138 0
6105 6140 0
6107 6142 0
6109 6144 0
6111 6146 0
6113 6148 0
6115 6150 0
6117 6152 0
6119 6154 0
6121 6156 0
6123 6158 0
6125 6160 0
6127 6162 0
6129 6164 0
6131 6166 0
6133 6168 0
6135 6170 0
6137 6172 0
6139 6174 0
6141 6176 0
6143 6178 0
6145 6180 0
6147 6182 0
6149 6184 0
6151 6186 0
6153 6188 0
6155 6190 0
6157 6192 0
6159 6194 0
6161 6196 0
6163 6198 0
6165 6200 0
6167 6202 0
6169 6204 0
6171 6206 0
6173 6208 0
6175 6210 0
6177 6212 0
6179 6214 0
6181 6216 0
6183 6218 0
6185 6220 0
6187 6222 0
6189 6224 0
6191 6226 0
6193 6228 0
6195 6230 0
6197 6232 0
6199 6234 0
6201 6236 0
6203 6238 0
6205 6240 0
6207 6242 0
6209 6244 0
6211 6246 0
6213 6248 0
6215 6250 0
6217 6252 0
6219 6254 0
6221 6256 0
6223 6258 0
6225 6260 0
6227 6262 0
6229 6264 0
6231 6266 0
6233 6268 0
6235 6270 0
6237 6272 0
6239 6274 0
6241 6276 0
6243 6278 0
6245 6280 0
6247 6282 0
6249 6284 0
6251 6286 0
6253 6288 0
6255 6290 0
6257 6292 0
6259 6294 0
6261 6296 0
6263 6298 0
6265 6300 0
6267 6302 0
6269 6304 0
6271 6306 0
6273 6308 0
6275 6310 0
6277 6312 0
6279 6314 0
6281 6316 0
6283 6318 0
6285 6320 0
6287 6322 0
6289 6324 0
6291 6326 0
6293 6328 0
6295 6330 0
6297 6332 0
6299 6334 0
6301 6336 0
6303 6338 0
6305 6340 0
6307 6342 0
6309 6344 0
6311 6346 0
6313 6348 0
6315 6350 0
6317 6352 0
6319 6354 0
6321 6356 0
6323 6358 0
6325 6360 0
6327 6362 0
6329 6364 0
6331 6366 0
6333 6368 0
6335 6370 0
6337 6372 0
6339 6374 0
6341 6376 0
6343 6378 0
6345 6380 0
6347 6382 0
6349 6384 0
6351 6386 0
6353 6388 0
6355 6390 0
6357 6392 0
6359 6394 0
6361 6396 0
6363 6398 0
6365 6400 0
6367 6402 0
6369 6404 0
6371 6406 0
6373 6408 0
6375 6410 0
6377 6412 0
6379 6414 0
6381 6416 0
6383 6418 0
6385 6420 0
6387 6422 0
6389 6424 0
6391 6426 0
6393 6428 0
6395 6430 0
6397 6432 0
6399 6434 0
6401 6436 0
6403 6438 0
6405 6440 0
6407 6442 0
6409 6444 0
6411 6446 0
6413 6448 0
6415 6450 0
6417 6452 0
6419 6454 0
6421 6456 0
6423 6458 0
6425 6460 0
6427 6462 0
6429 6464 0
6431 6466 0
6433 6468 0
6435 6470 0
6437 6472 0
6439 6474 0
6441 6476 0
6443 6478 0
6445 6480 0
6447 6482 0
6449 6484 0
6451 6486 0
6453 6488 0
6455 6490 0
6457 6492 0
6459 6494 0
6461 6496 0
6463 6498 0
6465 6500 0
6467 6502 0
6469 6504 0
6471 6506 0
6473 6508 0
6475 6510 0
6477 6512 0
6479 6514 0
6481 6516 0
6483 6518 0
6485 6520 0
6487 6522 0
6489 6524 0
6491 6526 0
6493 6528 0
6495 6530 0
6497 6532 0
6499 6534 0
6501 6536 0
6503 6538 0
6505 6540 0
6507 6542 0
6509 6544 0
6511 6546 0
6513 6548 0
6515 6550 0
6517 6552 0
6519 6554 0
6521 6556 0
6523 6558 0
6525 6560 0
6527 6562 0
6529 6564 0
6531 6566 0
6533 6568 0
6535 6570 0
6537 6572 0
6539 6574 0
6541 6576 0
6543 6578 0
6545 6580 0
5827 5867 5904 0
5827 5869 5906 0
5827 5871 5908 0
5827 5873 5910 0
5827 5875 5912 0
5827 5877 5914 0
5827 5879 5916 0
5827 5881 5918 0
5827 5883 5920 0
5827 5885 5922 0
5827 5887 5924 0
5827 5889 5926 0
5827 5891 5928 0
5827 5893 5930 0
5827 5895 5932 0
5827 5897 5934 0
5829 5901 5938 0
5829 5903 5940 0
5829 5905 5942 0
5829 5907 5944 0
5829 5909 5946 0
5829 5911 5948 0
5829 5913 5950 0
5829 5915 5952 0
5829 5917 5954 0
5829 5919 5956 0
5829 5921 5958 0
5829 5923 5960 0
5829 5925 5962 0
5829 5927 5964 0
5829 5929 5966 0
5829 5931 5968 0
5831 5935 5972 0
5831 5937 5974 0
5831 5939 5976 0
5831 5941 5978 0
5831 5943 5980 0
5831 5945 5982 0
5831 5947 5984 0
5831 5949 5986 0
5831 5951 5988 0
5831 5953 5990 0
5831 5955 5992 0
5831 5957 5994 0
5831 5959 5996 0
5831 5961 5998 0
5831 5963 6000 0
5831 5965 6002 0
5833 5969 6006 0
5833 5971 6008 0
5833 5973 6010 0
5833 5975 6012 0
5833 5977 6014 0
5833 5979 6016 0
5833 5981 6018 0
5833 5983 6020 0
5833 5985 6022 0
5833 5987 6024 0
5833 5989 6026 0
5833 5991 6028 0
5833 5993 6030 0
5833 5995 6032 0
5833 5997 6034 0
5833 5999 6036 0
5835 6003 6040 0
5835 6005 6042 0
5835 6007 6044 0
5835 6009 6046 0
5835 6011 6048 0
5835 6013 6050 0
5835 6015 6052 0
5835 6017 6054 0
5835 6019 6056 0
5835 6021 6058 0
5835 6023 6060 0
5835 6025 6062 0
5835 6027 6064 0
5835 6029 6066 0
5835 6031 6068 0
5835 6033 6070 0
5837 6037 6074 0
5837 6039 6076 0
5837 6041 6078 0
5837 6043 6080 0
5837 6045 6082 0
5837 6047 6084 0
5837 6049 6086 0
5837 6051 6088 0
5837 6053 6090 0
5837 6055 6092 0
5837 6057 6094 0
5837 6059 6096 0
5837 6061 6098 0
5837 6063 6100 0
5837 6065 6102 0
5837 6067 6104 0
5839 6071 6108 0
5839 6073 6110 0
5839 6075 6112 0
5839 6077 6114 0
5839 6079 6116 0
5839 6081 6118 0
5839 6083 6120 0
5839 6085 6122 0
5839 6087 6124 0
5839 6089 6126 0
5839 6091 6128 0
5839 6093 6130 0
5839 6095 6132 0
5839 6097 6134 0
5839 6099 6136 0
5839 6101 6138 0
5841 6105 6142 0
5841 6107 6144 0
5841 6109 6146 0
5841 6111 6148 0
5841 6113 6150 0
5841 6115 6152 0
5841 6117 6154 0
5841 6119 6156 0
5841 6121 6158 0
5841 6123 6160 0
5841 6125 6162 0
5841 6127 6164 0
5841 6129 6166 0
5841 6131 6168 0
5841 6133 6170 0
5841 6135 6172 0
5843 6139 6176 0
5843 6141 6178 0
5843 6143 6180 0
5843 6145 6182 0
5843 6147 6184 0
5843 6149 6186 0
5843 6151 6188 0
5843 6153 6190 0
5843 6155 6192 0
5843 6157 6194 0
5843 6159 6196 0
5843 6161 6198 0
5843 6163 6200 0
5843 6165 6202 0
5843 6167 6204 0
5843 6169 6206 0
5845 6173 6210 0
5845 6175 6212 0
5845 6177 6214 0
5845 6179 6216 0
5845 6181 6218 0
5845 6183 6220 0
5845 6185 6222 0
5845 6187 6224 0
5845 6189 6226 0
5845 6191 6228 0
5845 6193 6230 0
5845 6195 6232 0
5845 6197 6234 0
5845 6199 6236 0
5845 6201 6238 0
5845 6203 6240 0
5847 6207 6244 0
5847 6209 6246 0
5847 6211 6248 0
5847 6213 6250 0
5847 6215 6252 0
5847 6217 6254 0
5847 6219 6256 0
5847 6221 6258 0
5847 6223 6260 0
5847 6225 6262 0
5847 6227 6264 0
5847 6229 6266 0
5847 6231 6268 0
5847 6233 6270 0
5847 6235 6272 0
5847 6237 6274 0
5849 6241 6278 0
5849 6243 6280 0
5849 6245 6282 0
5849 6247 6284 0
5849 6249 6286 0
5849 6251 6288 0
5849 6253 6290 0
5849 6255 6292 0
5849 6257 6294 0
5849 6259 6296 0
5849 6261 6298 0
5849 6263 6300 0
5849 6265 6302 0
5849 6267 6304 0
5849 6269 6306 0
5849 6271 6308 0
5851 6275 6312 0
5851 6277 6314 0
5851 6279 6316 0
5851 6281 6318 0
5851 6283 6320 0
5851 6285 6322 0
5851 6287 6324 0
5851 6289 6326 0
5851 6291 6328 0
5851 6293 6330 0
5851 6295 6332 0
5851 6297 6334 0
5851 6299 6336 0
5851 6301 6338 0
5851 6303 6340 0
5851 6305 6342 0
5853 6309 6346 0
5853 6311 6348 0
5853 6313 6350 0
5853 6315 6352 0
5853 6317 6354 0
5853 6319 6356 0
5853 6321 6358 0
5853 6323 6360 0
5853 6325 6362 0
5853 6327 6364 0
5853 6329 6366 0
5853 6331 6368 0
5853 6333 6370 0
5853 6335 6372 0
5853 6337 6374 0
5853 6339 6376 0
5855 6343 6380 0
5855 6345 6382 0
5855 6347 6384 0
5855 6349 6386 0
5855 6351 6388 0
5855 6353 6390 0
5855 6355 6392 0
5855 6357 6394 0
5855 6359 6396 0
5855 6361 6398 0
5855 6363 6400 0
5855 6365 6402 0
5855 6367 6404 0
5855 6369 6406 0
5855 6371 6408 0
5855 6373 6410 0
5857 6377 6414 0
5857 6379 6416 0
5857 6381 6418 0
5857 6383 6420 0
5857 6385 6422 0
5857 6387 6424 0
5857 6389 6426 0
5857 6391 6428 0
5857 6393 6430 0
5857 6395 6432 0
5857 6397 6434 0
5857 6399 6436 0
5857 6401 6438 0
5857 6403 6440 0
5857 6405 6442 0
5857 6407 6444 0
5859 6411 6448 0
5859 6413 6450 0
5859 6415 6452 0
5859 6417 6454 0
5859 6419 6456 0
5859 6421 6458 0
5859 6423 6460 0
5859 6425 6462 0
5859 6427 6464 0
5859 6429 6466 0
5859 6431 6468 0
5859 6433 6470 0
5859 6435 6472 0
5859 6437 6474 0
5859 6439 6476 0
5859 6441 6478 0
5861 6445 6482 0
5861 6447 6484 0
5861 6449 6486 0
5861 6451 6488 0
5861 6453 6490 0
5861 6455 6492 0
5861 6457 6494 0
5861 6459 6496 0
5861 6461 6498 0
5861 6463 6500 0
5861 6465 6502 0
5861 6467 6504 0
5861 6469 6506 0
5861 6471 6508 0
5861 6473 6510 0
5861 6475 6512 0
5863 6479 6516 0
5863 6481 6518 0
5863 6483 6520 0
5863 6485 6522 0
5863 6487 6524 0
5863 6489 6526 0
5863 6491 6528 0
5863 6493 6530 0
5863 6495 6532 0
5863 6497 6534 0
5863 6499 6536 0
5863 6501 6538 0
5863 6503 6540 0
5863 6505 6542 0
5863 6507 6544 0
5863 6509 6546 0
5865 6513 6550 0
5865 6515 6552 0
5865 6517 6554 0
5865 6519 6556 0
5865 6521 6558 0
5865 6523 6560 0
5865 6525 6562 0
5865 6527 6564 0
5865 6529 6566 0
5865 6531 6568 0
5865 6533 6570 0
5865 6535 6572 0
5865 6537 6574 0
5865 6539 6576 0
5865 6541 6578 0
5865 6543 6580 0
5827 5899 0
5829 5933 0
5831 5967 0
5833 6001 0
5835 6035 0
5837 6069 0
5839 6103 0
5841 6137 0
5843 6171 0
5845 6205 0
5847 6239 0
5849 6273 0
5851 6307 0
5853 6341 0
5855 6375 0
5857 6409 0
5859 6443 0
5861 6477 0
5863 6511 0
5865 6545 0
11 6582 0
21 6590 0
29 6598 0
35 6606 0
39 6614 0
41 6622 0
51 6630 0
59 6638 0
65 6646 0
69 6654 0
71 6662 0
79 6670 0
85 6678 0
89 6686 0
91 6694 0
97 6702 0
101 6710 0
103 6718 0
107 6726 0
109 6734 0
111 6742 0
6581 6590 0
6583 6592 0
6585 6594 0
6587 6596 0
6589 6598 0
6591 6600 0
6593 6602 0
6595 6604 0
6597 6606 0
6599 6608 0
6601 6610 0
6603 6612 0
6605 6614 0
6607 6616 0
6609 6618 0
6611 6620 0
6613 6622 0
6615 6624 0
6617 6626 0
6619 6628 0
6621 6630 0
6623 6632 0
6625 6634 0
6627 6636 0
6629 6638 0
6631 6640 0
6633 6642 0
6635 6644 0
6637 6646 0
6639 6648 0
6641 6650 0
6643 6652 0
6645 6654 0
6647 6656 0
6649 6658 0
6651 6660 0
6653 6662 0
6655 6664 0
6657 6666 0
6659 6668 0
6661 6670 0
6663 6672 0
6665 6674 0
6667 6676 0
6669 6678 0
6671 6680 0
6673 6682 0
6675 6684 0
6677 6686 0
6679 6688 0
6681 6690 0
6683 6692 0
6685 6694 0
6687 6696 0
6689 6698 0
6691 6700 0
6693 6702 0
6695 6704 0
6697 6706 0
6699 6708 0
6701 6710 0
6703 6712 0
6705 6714 0
6707 6716 0
6709 6718 0
6711 6720 0
6713 6722 0
6715 6724 0
6717 6726 0
6719 6728 0
6721 6730 0
6723 6732 0
6725 6734 0
6727 6736 0
6729 6738 0
6731 6740 0
6733 6742 0
6735 6744 0
6737 6746 0
6739 6748 0
21 6581 6592 0
21 6583 6594 0
21 6585 6596 0
29 6589 6600 0
29 6591 6602 0
29 6593 6604 0
35 6597 6608 0
35 6599 6610 0
35 6601 6612 0
39 6605 6616 0
39 6607 6618 0
39 6609 6620 0
41 6613 6624 0
41 6615 6626 0
41 6617 6628 0
51 6621 6632 0
51 6623 6634 0
51 6625 6636 0
59 6629 6640 0
59 6631 6642 0
59 6633 6644 0
65 6637 6648 0
65 6639 6650 0
65 6641 6652 0
69 6645 6656 0
69 6647 6658 0
69 6649 6660 0
71 6653 6664 0
71 6655 6666 0
71 6657 6668 0
79 6661 6672 0
79 6663 6674 0
79 6665 6676 0
85 6669 6680 0
85 6671 6682 0
85 6673 6684 0
89 6677 6688 0
89 6679 6690 0
89 6681 6692 0
91 6685 6696 0
91 6687 6698 0
91 6689 6700 0
97 6693 6704 0
97 6695 6706 0
97 6697 6708 0
101 6701 6712 0
101 6703 6714 0
101 6705 6716 0
103 6709 6720 0
103 6711 6722 0
103 6713 6724 0
107 6717 6728 0
107 6719 6730 0
107 6721 6732 0
109 6725 6736 0
109 6727 6738 0
109 6729 6740 0
111 6733 6744 0
111 6735 6746 0
111 6737 6748 0
21 6587 0
29 6595 0
35 6603 0
39 6611 0
41 6619 0
51 6627 0
59 6635 0
65 6643 0
69 6651 0
71 6659 0
79 6667 0
85 6675 0
89 6683 0
91 6691 0
97 6699 0
101 6707 0
103 6715 0
107 6723 0
109 6731 0
111 6739 0
6750 12 0
6749 11 0
6752 22 0
6751 21 0
6754 30 0
6753 29 0
6756 36 0
6755 35 0
6758 40 0
6757 39 0
6760 42 0
6759 41 0
6762 52 0
6761 51 0
6764 60 0
6763 59 0
6766 66 0
6765 65 0
6768 70 0
6767 69 0
6770 72 0
6769 71 0
6772 80 0
6771 79 0
6774 86 0
6773 85 0
6776 90 0
6775 89 0
6778 92 0
6777 91 0
6780 98 0
6779 97 0
6782 102 0
6781 101 0
6784 104 0
6783 103 0
6786 108 0
6785 107 0
6788 110 0
6787 109 0
6790 112 0
6789 111 0
6749 6792 0
6751 6826 0
6753 6860 0
6755 6894 0
6757 6928 0
6759 6962 0
6761 6996 0
6763 7030 0
6765 7064 0
6767 7098 0
6769 7132 0
6771 7166 0
6773 7200 0
6775 7234 0
6777 7268 0
6779 7302 0
6781 7336 0
6783 7370 0
6785 7404 0
6787 7438 0
6789 7472 0
6791 6826 0
6793 6828 0
6795 6830 0
6797 6832 0
6799 6834 0
6801 6836 0
6803 6838 0
6805 6840 0
6807 6842 0
6809 6844 0
6811 6846 0
6813 6848 0
6815 6850 0
6817 6852 0
6819 6854 0
6821 6856 0
6823 6858 0
6825 6860 0
6827 6862 0
6829 6864 0
6831 6866 0
6833 6868 0
6835 6870 0
6837 6872 0
6839 6874 0
6841 6876 0
6843 6878 0
6845 6880 0
6847 6882 0
6849 6884 0
6851 6886 0
6853 6888 0
6855 6890 0
6857 6892 0
6859 6894 0
6861 6896 0
6863 6898 0
6865 6900 0
6867 6902 0
6869 6904 0
6871 6906 0
6873 6908 0
6875 6910 0
6877 6912 0
6879 6914 0
6881 6916 0
6883 6918 0
6885 6920 0
6887 6922 0
6889 6924 0
6891 6926 0
6893 6928 0
6895 6930 0
6897 6932 0
6899 6934 0
6901 6936 0
6903 6938 0
6905 6940 0
6907 6942 0
6909 6944 0
6911 6946 0
6913 6948 0
6915 6950 0
6917 6952 0
6919 6954 0
6921 6956 0
6923 6958 0
6925 6960 0
6927 6962 0
6929 6964 0
6931 6966 0
6933 6968 0
6935 6970 0
6937 6972 0
6939 6974 0
6941 6976 0
6943 6978 0
6945 6980 0
6947 6982 0
6949 6984 0
6951 6986 0
6953 6988 0
6955 6990 0
6957 6992 0
6959 6994 0
6961 6996 0
6963 6998 0
6965 7000 0
6967 7002 0
6969 7004 0
6971 7006 0
6973 7008 0
6975 7010 0
6977 7012 0
6979 7014 0
6981 7016 0
6983 7018 0
6985 7020 0
6987 7022 0
6989 7024 0
6991 7026 0
6993 7028 0
6995 7030 0
6997 7032 0
6999 7034 0
7001 7036 0
7003 7038 0
7005 7040 0
7007 7042 0
7009 7044 0
7011 7046 0
7013 7048 0
7015 7050 0
7017 7052 0
7019 7054 0
7021 7056 0
7023 7058 0
7025 7060 0
7027 7062 0
7029 7064 0
7031 7066 0
7033 7068 0
7035 7070 0
7037 7072 0
7039 7074 0
7041 7076 0
7043 7078 0
7045 7080 0
7047 7082 0
7049 7084 0
7051 7086 0
7053 7088 0
7055 7090 0
7057 7092 0
7059 7094 0
7061 7096 0
7063 7098 0
7065 7100 0
7067 7102 0
7069 7104 0
7071 7106 0
7073 7108 0
7075 7110 0
7077 7112 0
7079 7114 0
7081 7116 0
7083 7118 0
7085 7120 0
7087 7122 0
7089 7124 0
7091 7126 0
7093 7128 0
7095 7130 0
7097 7132 0
7099 7134 0
7101 7136 0
7103 7138 0
7105 7140 0
7107 7142 0
7109 7144 0
7111 7146 0
7113 7148 0
7115 7150 0
7117 7152 0
7119 7154 0
7121 7156 0
7123 7158 0
7125 7160 0
7127 7162 0
7129 7164 0
7131 7166 0
7133 7168 0
7135 7170 0
7137 7172 0
7139 7174 0
7141 7176 0
7143 7178 0
7145 7180 0
7147 7182 0
7149 7184 0
7151 7186 0
7153 7188 0
7155 7190 0
7157 7192 0
7159 7194 0
7161 7196 0
7163 7198 0
7165 7200 0
7167 7202 0
7169 7204 0
7171 7206 0
7173 7208 0
7175 7210 0
7177 7212 0
7179 7214 0
7181 7216 0
7183 7218 0
7185 7220 0
7187 7222 0
7189 7224 0
7191 7226 0
7193 7228 0
7195 7230 0
7197 7232 0
7199 7234 0
7201 7236 0
7203 7238 0
7205 7240 0
7207 7242 0
7209 7244 0
7211 7246 0
7213 7248 0
7215 7250 0
7217 7252 0
7219 7254 0
7221 7256 0
7223 7258 0
7225 7260 0
7227 7262 0
7229 7264 0
7231 7266 0
7233 7268 0
7235 7270 0
7237 7272 0
7239 7274 0
7241 7276 0
7243 7278 0
7245 7280 0
7247 7282 0
7249 7284 0
7251 7286 0
7253 7288 0
7255 7290 0
7257 7292 0
7259 7294 0
7261 7296 0
7263 7298 0
7265 7300 0
7267 7302 0
7269 7304 0
7271 7306 0
7273 7308 0
7275 7310 0
7277 7312 0
7279 7314 0
7281 7316 0
7283 7318 0
7285 7320 0
7287 7322 0
7289 7324 0
7291 7326 0
7293 7328 0
7295 7330 0
7297 7332 0
7299 7334 0
7301 7336 0
7303 7338 0
7305 7340 0
7307 7342 0
7309 7344 0
7311 7346 0
7313 7348 0
7315 7350 0
7317 7352 0
7319 7354 0
7321 7356 0
7323 7358 0
7325 7360 0
7327 7362 0
7329 7364 0
7331 7366 0
7333 7368 0
7335 7370 0
7337 7372 0
7339 7374 0
7341 7376 0
7343 7378 0
7345 7380 0
7347 7382 0
7349 7384 0
7351 7386 0
7353 7388 0
7355 7390 0
7357 7392 0
7359 7394 0
7361 7396 0
7363 7398 0
7365 7400 0
7367 7402 0
7369 7404 0
7371 7406 0
7373 7408 0
7375 7410 0
7377 7412 0
7379 7414 0
7381 7416 0
7383 7418 0
7385 7420 0
7387 7422 0
7389 7424 0
7391 7426 0
7393 7428 0
7395 7430 0
7397 7432 0
7399 7434 0
7401 7436 0
7403 7438 0
7405 7440 0
7407 7442 0
7409 7444 0
7411 7446 0
7413 7448 0
7415 7450 0
7417 7452 0
7419 7454 0
7421 7456 0
7423 7458 0
7425 7460 0
7427 7462 0
7429 7464 0
7431 7466 0
7433 7468 0
7435 7470 0
7437 7472 0
7439 7474 0
7441 7476 0
7443 7478 0
7445 7480 0
7447 7482 0
7449 7484 0
7451 7486 0
7453 7488 0
7455 7490 0
7457 7492 0
7459 7494 0
7461 7496 0
7463 7498 0
7465 7500 0
7467 7502 0
7469 7504 0
6751 6791 6828 0
6751 6793 6830 0
6751 6795 6832 0
6751 6797 6834 0
6751 6799 6836 0
6751 6801 6838 0
6751 6803 6840 0
6751 6805 6842 0
6751 6807 6844 0
6751 6809 6846 0
6751 6811 6848 0
6751 6813 6850 0
6751 6815 6852 0
6751 6817 6854 0
6751 6819 6856 0
6751 6821 6858 0
6753 6825 6862 0
6753 6827 6864 0
6753 6829 6866 0
6753 6831 6868 0
6753 6833 6870 0
6753 6835 6872 0
6753 6837 6874 0
6753 6839 6876 0
6753 6841 6878 0
6753 6843 6880 0
6753 6845 6882 0
6753 6847 6884 0
6753 6849 6886 0
6753 6851 6888 0
6753 6853 6890 0
6753 6855 6892 0
6755 6859 6896 0
6755 6861 6898 0
6755 6863 6900 0
6755 6865 6902 0
6755 6867 6904 0
6755 6869 6906 0
6755 6871 6908 0
6755 6873 6910 0
6755 6875 6912 0
6755 6877 6914 0
6755 6879 6916 0
6755 6881 6918 0
6755 6883 6920 0
6755 6885 6922 0
6755 6887 6924 0
6755 6889 6926 0
6757 6893 6930 0
6757 6895 6932 0
6757 6897 6934 0
6757 6899 6936 0
6757 6901 6938 0
6757 6903 6940 0
6757 6905 6942 0
6757 6907 6944 0
6757 6909 6946 0
6757 6911 6948 0
6757 6913 6950 0
6757 6915 6952 0
6757 6917 6954 0
6757 6919 6956 0
6757 6921 6958 0
6757 6923 6960 0
6759 6927 6964 0
6759 6929 6966 0
6759 6931 6968 0
6759 6933 6970 0
6759 6935 6972 0
6759 6937 6974 0
6759 6939 6976 0
6759 6941 6978 0
6759 6943 6980 0
6759 6945 6982 0
6759 6947 6984 0
6759 6949 6986 0
6759 6951 6988 0
6759 6953 6990 0
6759 6955 6992 0
6759 6957 6994 0
6761 6961 6998 0
6761 6963 7000 0
6761 6965 7002 0
6761 6967 7004 0
6761 6969 7006 0
6761 6971 7008 0
6761 6973 7010 0
6761 6975 7012 0
6761 6977 7014 0
6761 6979 7016 0
6761 6981 7018 0
6761 6983 7020 0
6761 6985 7022 0
6761 6987 7024 0
6761 6989 7026 0
6761 6991 7028 0
6763 6995 7032 0
6763 6997 7034 0
6763 6999 7036 0
6763 7001 7038 0
6763 7003 7040 0
6763 7005 7042 0
6763 7007 7044 0
6763 7009 7046 0
6763 7011 7048 0
6763 7013 7050 0
6763 7015 7052 0
6763 7017 7054 0
6763 7019 7056 0
6763 7021 7058 0
6763 7023 7060 0
6763 7025 7062 0
6765 7029 7066 0
6765 7031 7068 0
6765 7033 7070 0
6765 7035 7072 0
6765 7037 7074 0
6765 7039 7076 0
6765 7041 7078 0
6765 7043 7080 0
6765 7045 7082 0
6765 7047 7084 0
6765 7049 7086 0
6765 7051 7088 0
6765 7053 7090 0
6765 7055 7092 0
6765 7057 7094 0
6765 7059 7096 0
6767 7063 7100 0
6767 7065 7102 0
6767 7067 7104 0
6767 7069 7106 0
6767 7071 7108 0
6767 7073 7110 0
6767 7075 7112 0
6767 7077 7114 0
6767 7079 7116 0
6767 7081 7118 0
6767 7083 7120 0
6767 7085 7122 0
6767 7087 7124 0
6767 7089 7126 0
6767 7091 7128 0
6767 7093 7130 0
6769 7097 7134 0
6769 7099 7136 0
6769 7101 7138 0
6769 7103 7140 0
6769 7105 7142 0
6769 7107 7144 0
6769 7109 7146 0
6769 7111 7148 0
6769 7113 7150 0
6769 7115 7152 0
6769 7117 7154 0
6769 7119 7156 0
6769 7121 7158 0
6769 7123 7160 0
6769 7125 7162 0
6769 7127 7164 0
6771 7131 7168 0
6771 7133 7170 0
6771 7135 7172 0
6771 7137 7174 0
6771 7139 7176 0
6771 7141 7178 0
6771 7143 7180 0
6771 7145 7182 0
6771 7147 7184 0
6771 7149 7186 0
6771 7151 7188 0
6771 7153 7190 0
6771 7155 7192 0
6771 7157 7194 0
6771 7159 7196 0
6771 7161 7198 0
6773 7165 7202 0
6773 7167 7204 0
6773 7169 7206 0
6773 7171 7208 0
6773 7173 7210 0
6773 7175 7212 0
6773 7177 7214 0
6773 7179 7216 0
6773 7181 7218 0
6773 7183 7220 0
6773 7185 7222 0
6773 7187 7224 0
6773 7189 7226 0
6773 7191 7228 0
6773 7193 7230 0
6773 7195 7232 0
6775 7199 7236 0
6775 7201 7238 0
6775 7203 7240 0
6775 7205 7242 0
6775 7207 7244 0
6775 7209 7246 0
6775 7211 7248 0
6775 7213 7250 0
6775 7215 7252 0
6775 7217 7254 0
6775 7219 7256 0
6775 7221 7258 0
6775 7223 7260 0
6775 7225 7262 0
6775 7227 7264 0
6775 7229 7266 0
6777 7233 7270 0
6777 7235 7272 0
6777 7237 7274 0
6777 7239 7276 0
6777 7241 7278 0
6777 7243 7280 0
6777 7245 7282 0
6777 7247 7284 0
6777 7249 7286 0
6777 7251 7288 0
6777 7253 7290 0
6777 7255 7292 0
6777 7257 7294 0
6777 7259 7296 0
6777 7261 7298 0
6777 7263 7300 0
6779 7267 7304 0
6779 7269 7306 0
6779 7271 7308 0
6779 7273 7310 0
6779 7275 7312 0
6779 7277 7314 0
6779 7279 7316 0
6779 7281 7318 0
6779 7283 7320 0
6779 7285 7322 0
6779 7287 7324 0
6779 7289 7326 0
6779 7291 7328 0
6779 7293 7330 0
6779 7295 7332 0
6779 7297 7334 0
6781 7301 7338 0
6781 7303 7340 0
6781 7305 7342 0
6781 7307 7344 0
6781 7309 7346 0
6781 7311 7348 0
6781 7313 7350 0
6781 7315 7352 0
6781 7317 7354 0
6781 7319 7356 0
6781 7321 7358 0
6781 7323 7360 0
6781 7325 7362 0
6781 7327 7364 0
6781 7329 7366 0
6781 7331 7368 0
6783 7335 7372 0
6783 7337 7374 0
6783 7339 7376 0
6783 7341 7378 0
6783 7343 7380 0
6783 7345 7382 0
6783 7347 7384 0
6783 7349 7386 0
6783 7351 7388 0
6783 7353 7390 0
6783 7355 7392 0
6783 7357 7394 0
6783 7359 7396 0
6783 7361 7398 0
6783 7363 7400 0
6783 7365 7402 0
6785 7369 7406 0
6785 7371 7408 0
6785 7373 7410 0
6785 7375 7412 0
6785 7377 7414 0
6785 7379 7416 0
6785 7381 7418 0
6785 7383 7420 0
6785 7385 7422 0
6785 7387 7424 0
6785 7389 7426 0
6785 7391 7428 0
6785 7393 7430 0
6785 7395 7432 0
6785 7397 7434 0
6785 7399 7436 0
6787 7403 7440 0
6787 7405 7442 0
6787 7407 7444 0
6787 7409 7446 0
6787 7411 7448 0
6787 7413 7450 0
6787 7415 7452 0
6787 7417 7454 0
6787 7419 7456 0
6787 7421 7458 0
6787 7423 7460 0
6787 7425 7462 0
6787 7427 7464 0
6787 7429 7466 0
6787 7431 7468 0
6787 7433 7470 0
6789 7437 7474 0
6789 7439 7476 0
6789 7441 7478 0
6789 7443 7480 0
6789 7445 7482 0
6789 7447 7484 0
6789 7449 7486 0
6789 7451 7488 0
6789 7453 7490 0
6789 7455 7492 0
6789 7457 7494 0
6789 7459 7496 0
6789 7461 7498 0
6789 7463 7500 0
6789 7465 7502 0
6789 7467 7504 0
6751 6823 0
6753 6857 0
6755 6891 0
6757 6925 0
6759 6959 0
6761 6993 0
6763 7027 0
6765 7061 0
6767 7095 0
6769 7129 0
6771 7163 0
6773 7197 0
6775 7231 0
6777 7265 0
6779 7299 0
6781 7333 0
6783 7367 0
6785 7401 0
6787 7435 0
6789 7469 0
1 2 0
-1 -2 0
3 4 0
-3 -4 0
5 6 0
-5 -6 0
7 8 0
-7 -8 0
9 10 0
-9 -10 0
11 12 0
-11 -12 0
13 14 0
-13 -14 0
15 16 0
-15 -16 0
17 18 0
-17 -18 0
19 20 0
-19 -20 0
21 22 0
-21 -22 0
23 24 0
-23 -24 0
25 26 0
-25 -26 0
27 28 0
-27 -28 0
29 30 0
-29 -30 0
31 32 0
-31 -32 0
33 34 0
-33 -34 0
35 36 0
-35 -36 0
37 38 0
-37 -38 0
39 40 0
-39 -40 0
41 42 0
-41 -42 0
43 44 0
-43 -44 0
45 46 0
-45 -46 0
47 48 0
-47 -48 0
49 50 0
-49 -50 0
51 52 0
-51 -52 0
53 54 0
-53 -54 0
55 56 0
-55 -56 0
57 58 0
-57 -58 0
59 60 0
-59 -60 0
61 62 0
-61 -62 0
63 64 0
-63 -64 0
65 66 0
-65 -66 0
67 68 0
-67 -68 0
69 70 0
-69 -70 0
71 72 0
-71 -72 0
73 74 0
-73 -74 0
75 76 0
-75 -76 0
77 78 0
-77 -78 0
79 80 0
-79 -80 0
81 82 0
-81 -82 0
83 84 0
-83 -84 0
85 86 0
-85 -86 0
87 88 0
-87 -88 0
89 90 0
-89 -90 0
91 92 0
-91 -92 0
93 94 0
-93 -94 0
95 96 0
-95 -96 0
97 98 0
-97 -98 0
99 100 0
-99 -100 0
101 102 0
-101 -102 0
103 104 0
-103 -104 0
105 106 0
-105 -106 0
107 108 0
-107 -108 0
109 110 0
-109 -110 0
111 112 0
-111 -112 0
113 114 0
-113 -114 0
115 116 0
-115 -116 0
117 118 0
-117 -118 0
119 120 0
-119 -120 0
121 122 0
-121 -122 0
123 124 0
-123 -124 0
125 126 0
-125 -126 0
127 128 0
-127 -128 0
129 130 0
-129 -130 0
131 132 0
-131 -132 0
133 134 0
-133 -134 0
135 136 0
-135 -136 0
137 138 0
-137 -138 0
139 140 0
-139 -140 0
141 142 0
-141 -142 0
143 144 0
-143 -144 0
145 146 0
-145 -146 0
147 148 0
-147 -148 0
149 150 0
-149 -150 0
151 152 0
-151 -152 0
153 154 0
-153 -154 0
155 156 0
-155 -156 0
157 158 0
-157 -158 0
159 160 0
-159 -160 0
161 162 0
-161 -162 0
163 164 0
-163 -164 0
165 166 0
-165 -166 0
167 168 0
-167 -168 0
169 170 0
-169 -170 0
171 172 0
-171 -172 0
173 174 0
-173 -174 0
175 176 0
-175 -176 0
177 178 0
-177 -178 0
179 180 0
-179 -180 0
181 182 0
-181 -182 0
183 184 0
-183 -184 0
185 186 0
-185 -186 0
187 188 0
-187 -188 0
189 190 0
-189 -190 0
191 192 0
-191 -192 0
193 194 0
-193 -194 0
195 196 0
-195 -196 0
197 198 0
-197 -198 0
199 200 0
-199 -200 0
201 202 0
-201 -202 0
203 204 0
-203 -204 0
205 206 0
-205 -206 0
207 208 0
-207 -208 0
209 210 0
-209 -210 0
211 212 0
-211 -212 0
213 214 0
-213 -214 0
215 216 0
-215 -216 0
217 218 0
-217 -218 0
219 220 0
-219 -220 0
221 222 0
-221 -222 0
223 224 0
-223 -224 0
225 226 0
-225 -226 0
227 228 0
-227 -228 0
229 230 0
-229 -230 0
231 232 0
-231 -232 0
233 234 0
-233 -234 0
235 236 0
-235 -236 0
237 238 0
-237 -238 0
239 240 0
-239 -240 0
241 242 0
-241 -242 0
243 244 0
-243 -244 0
245 246 0
-245 -246 0
247 248 0
-247 -248 0
249 250 0
-249 -250 0
251 252 0
-251 -252 0
253 254 0
-253 -254 0
255 256 0
-255 -256 0
257 258 0
-257 -258 0
259 260 0
-259 -260 0
261 262 0
-261 -262 0
263 264 0
-263 -264 0
265 266 0
-265 -266 0
267 268 0
-267 -268 0
269 270 0
-269 -270 0
271 272 0
-271 -272 0
273 274 0
-273 -274 0
275 276 0
-275 -276 0
277 278 0
-277 -278 0
279 280 0
-279 -280 0
281 282 0
-281 -282 0
283 284 0
-283 -284 0
285 286 0
-285 -286 0
287 288 0
-287 -288 0
289 290 0
-289 -290 0
291 292 0
-291 -292 0
293 294 0
-293 -294 0
295 296 0
-295 -296 0
297 298 0
-297 -298 0
299 300 0
-299 -300 0
301 302 0
-301 -302 0
303 304 0
-303 -304 0
305 306 0
-305 -306 0
307 308 0
-307 -308 0
309 310 0
-309 -310 0
311 312 0
-311 -312 0
313 314 0
-313 -314 0
315 316 0
-315 -316 0
317 318 0
-317 -318 0
319 320 0
-319 -320 0
321 322 0
-321 -322 0
323 324 0
-323 -324 0
325 326 0
-325 -326 0
327 328 0
-327 -328 0
329 330 0
-329 -330 0
331 332 0
-331 -332 0
333 334 0
-333 -334 0
335 336 0
-335 -336 0
337 338 0
-337 -338 0
339 340 0
-339 -340 0
341 342 0
-341 -342 0
343 344 0
-343 -344 0
345 346 0
-345 -346 0
347 348 0
-347 -348 0
349 350 0
-349 -350 0
351 352 0
-351 -352 0
353 354 0
-353 -354 0
355 356 0
-355 -356 0
357 358 0
-357 -358 0
359 360 0
-359 -360 0
361 362 0
-361 -362 0
363 364 0
-363 -364 0
365 366 0
-365 -366 0
367 368 0
-367 -368 0
369 370 0
-369 -370 0
371 372 0
-371 -372 0
373 374 0
-373 -374 0
375 376 0
-375 -376 0
377 378 0
-377 -378 0
379 380 0
-379 -380 0
381 382 0
-381 -382 0
383 384 0
-383 -384 0
385 386 0
-385 -386 0
387 388 0
-387 -388 0
389 390 0
-389 -390 0
391 392 0
-391 -392 0
393 394 0
-393 -394 0
395 396 0
-395 -396 0
397 398 0
-397 -398 0
399 400 0
-399 -400 0
401 402 0
-401 -402 0
403 404 0
-403 -404 0
405 406 0
-405 -406 0
407 408 0
-407 -408 0
409 410 0
-409 -410 0
411 412 0
-411 -412 0
413 414 0
-413 -414 0
415 416 0
-415 -416 0
417 418 0
-417 -418 0
419 420 0
-419 -420 0
421 422 0
-421 -422 0
423 424 0
-423 -424 0
425 426 0
-425 -426 0
427 428 0
-427 -428 0
429 430 0
-429 -430 0
431 432 0
-431 -432 0
433 434 0
-433 -434 0
435 436 0
-435 -436 0
437 438 0
-437 -438 0
439 440 0
-439 -440 0
441 442 0
-441 -442 0
443 444 0
-443 -444 0
445 446 0
-445 -446 0
447 448 0
-447 -448 0
449 450 0
-449 -450 0
451 452 0
-451 -452 0
453 454 0
-453 -454 0
455 456 0
-455 -456 0
457 458 0
-457 -458 0
459 460 0
-459 -460 0
461 462 0
-461 -462 0
463 464 0
-463 -464 0
465 466 0
-465 -466 0
467 468 0
-467 -468 0
469 470 0
-469 -470 0
471 472 0
-471 -472 0
473 474 0
-473 -474 0
475 476 0
-475 -476 0
477 478 0
-477 -478 0
479 480 0
-479 -480 0
481 482 0
-481 -482 0
483 484 0
-483 -484 0
485 486 0
-485 -486 0
487 488 0
-487 -488 0
489 490 0
-489 -490 0
491 492 0
-491 -492 0
493 494 0
-493 -494 0
495 496 0
-495 -496 0
497 498 0
-497 -498 0
499 500 0
-499 -500 0
501 502 0
-501 -502 0
503 504 0
-503 -504 0
505 506 0
-505 -506 0
507 508 0
-507 -508 0
509 510 0
-509 -510 0
511 512 0
-511 -512 0
513 514 0
-513 -514 0
515 516 0
-515 -516 0
517 518 0
-517 -518 0
519 520 0
-519 -520 0
521 522 0
-521 -522 0
523 524 0
-523 -524 0
525 526 0
-525 -526 0
527 528 0
-527 -528 0
529 530 0
-529 -530 0
531 532 0
-531 -532 0
533 534 0
-533 -534 0
535 536 0
-535 -536 0
537 538 0
-537 -538 0
539 540 0
-539 -540 0
541 542 0
-541 -542 0
543 544 0
-543 -544 0
545 546 0
-545 -546 0
547 548 0
-547 -548 0
549 550 0
-549 -550 0
551 552 0
-551 -552 0
553 554 0
-553 -554 0
555 556 0
-555 -556 0
557 558 0
-557 -558 0
559 560 0
-559 -560 0
561 562 0
-561 -562 0
563 564 0
-563 -564 0
565 566 0
-565 -566 0
567 568 0
-567 -568 0
569 570 0
-569 -570 0
571 572 0
-571 -572 0
573 574 0
-573 -574 0
575 576 0
-575 -576 0
577 578 0
-577 -578 0
579 580 0
-579 -580 0
581 582 0
-581 -582 0
583 584 0
-583 -584 0
585 586 0
-585 -586 0
587 588 0
-587 -588 0
589 590 0
-589 -590 0
591 592 0
-591 -592 0
593 594 0
-593 -594 0
595 596 0
-595 -596 0
597 598 0
-597 -598 0
599 600 0
-599 -600 0
601 602 0
-601 -602 0
603 604 0
-603 -604 0
605 606 0
-605 -606 0
607 608 0
-607 -608 0
609 610 0
-609 -610 0
611 612 0
-611 -612 0
613 614 0
-613 -614 0
615 616 0
-615 -616 0
617 618 0
-617 -618 0
619 620 0
-619 -620 0
621 622 0
-621 -622 0
623 624 0
-623 -624 0
625 626 0
-625 -626 0
627 628 0
-627 -628 0
629 630 0
-629 -630 0
631 632 0
-631 -632 0
633 634 0
-633 -634 0
635 636 0
-635 -636 0
637 638 0
-637 -638 0
639 640 0
-639 -640 0
641 642 0
-641 -642 0
643 644 0
-643 -644 0
645 646 0
-645 -646 0
647 648 0
-647 -648 0
649 650 0
-649 -650 0
651 652 0
-651 -652 0
653 654 0
-653 -654 0
655 656 0
-655 -656 0
657 658 0
-657 -658 0
659 660 0
-659 -660 0
661 662 0
-661 -662 0
663 664 0
-663 -664 0
665 666 0
-665 -666 0
667 668 0
-667 -668 0
669 670 0
-669 -670 0
671 672 0
-671 -672 0
673 674 0
-673 -674 0
675 676 0
-675 -676 0
677 678 0
-677 -678 0
679 680 0
-679 -680 0
681 682 0
-681 -682 0
683 684 0
-683 -684 0
685 686 0
-685 -686 0
687 688 0
-687 -688 0
689 690 0
-689 -690 0
691 692 0
-691 -692 0
693 694 0
-693 -694 0
695 696 0
-695 -696 0
697 698 0
-697 -698 0
699 700 0
-699 -700 0
701 702 0
-701 -702 0
703 704 0
-703 -704 0
705 706 0
-705 -706 0
707 708 0
-707 -708 0
709 710 0
-709 -710 0
711 712 0
-711 -712 0
713 714 0
-713 -714 0
715 716 0
-715 -716 0
717 718 0
-717 -718 0
719 720 0
-719 -720 0
721 722 0
-721 -722 0
723 724 0
-723 -724 0
725 726 0
-725 -726 0
727 728 0
-727 -728 0
729 730 0
-729 -730 0
731 732 0
-731 -732 0
733 734 0
-733 -734 0
735 736 0
-735 -736 0
737 738 0
-737 -738 0
739 740 0
-739 -740 0
741 742 0
-741 -742 0
743 744 0
-743 -744 0
745 746 0
-745 -746 0
747 748 0
-747 -748 0
749 750 0
-749 -750 0
751 752 0
-751 -752 0
753 754 0
-753 -754 0
755 756 0
-755 -756 0
757 758 0
-757 -758 0
759 760 0
-759 -760 0
761 762 0
-761 -762 0
763 764 0
-763 -764 0
765 766 0
-765 -766 0
767 768 0
-767 -768 0
769 770 0
-769 -770 0
771 772 0
-771 -772 0
773 774 0
-773 -774 0
775 776 0
-775 -776 0
777 778 0
-777 -778 0
779 780 0
-779 -780 0
781 782 0
-781 -782 0
783 784 0
-783 -784 0
785 786 0
-785 -786 0
787 788 0
-787 -788 0
789 790 0
-789 -790 0
791 792 0
-791 -792 0
793 794 0
-793 -794 0
795 796 0
-795 -796 0
797 798 0
-797 -798 0
799 800 0
-799 -800 0
801 802 0
-801 -802 0
803 804 0
-803 -804 0
805 806 0
-805 -806 0
807 808 0
-807 -808 0
809 810 0
-809 -810 0
811 812 0
-811 -812 0
813 814 0
-813 -814 0
815 816 0
-815 -816 0
817 818 0
-817 -818 0
819 820 0
-819 -820 0
821 822 0
-821 -822 0
823 824 0
-823 -824 0
825 826 0
-825 -826 0
827 828 0
-827 -828 0
829 830 0
-829 -830 0
831 832 0
-831 -832 0
833 834 0
-833 -834 0
835 836 0
-835 -836 0
837 838 0
-837 -838 0
839 840 0
-839 -840 0
841 842 0
-841 -842 0
843 844 0
-843 -844 0
845 846 0
-845 -846 0
847 848 0
-847 -848 0
849 850 0
-849 -850 0
851 852 0
-851 -852 0
853 854 0
-853 -854 0
855 856 0
-855 -856 0
857 858 0
-857 -858 0
859 860 0
-859 -860 0
861 862 0
-861 -862 0
863 864 0
-863 -864 0
865 866 0
-865 -866 0
867 868 0
-867 -868 0
869 870 0
-869 -870 0
871 872 0
-871 -872 0
873 874 0
-873 -874 0
875 876 0
-875 -876 0
877 878 0
-877 -878 0
879 880 0
-879 -880 0
881 882 0
-881 -882 0
883 884 0
-883 -884 0
885 886 0
-885 -886 0
887 888 0
-887 -888 0
889 890 0
-889 -890 0
891 892 0
-891 -892 0
893 894 0
-893 -894 0
895 896 0
-895 -896 0
897 898 0
-897 -898 0
899 900 0
-899 -900 0
901 902 0
-901 -902 0
903 904 0
-903 -904 0
905 906 0
-905 -906 0
907 908 0
-907 -908 0
909 910 0
-909 -910 0
911 912 0
-911 -912 0
913 914 0
-913 -914 0
915 916 0
-915 -916 0
917 918 0
-917 -918 0
919 920 0
-919 -920 0
921 922 0
-921 -922 0
923 924 0
-923 -924 0
925 926 0
-925 -926 0
927 928 0
-927 -928 0
929 930 0
-929 -930 0
931 932 0
-931 -932 0
933 934 0
-933 -934 0
935 936 0
-935 -936 0
937 938 0
-937 -938 0
939 940 0
-939 -940 0
941 942 0
-941 -942 0
943 944 0
-943 -944 0
945 946 0
-945 -946 0
947 948 0
-947 -948 0
949 950 0
-949 -950 0
951 952 0
-951 -952 0
953 954 0
-953 -954 0
955 956 0
-955 -956 0
957 958 0
-957 -958 0
959 960 0
-959 -960 0
961 962 0
-961 -962 0
963 964 0
-963 -964 0
965 966 0
-965 -966 0
967 968 0
-967 -968 0
969 970 0
-969 -970 0
971 972 0
-971 -972 0
973 974 0
-973 -974 0
975 976 0
-975 -976 0
977 978 0
-977 -978 0
979 980 0
-979 -980 0
981 982 0
-981 -982 0
983 984 0
-983 -984 0
985 986 0
-985 -986 0
987 988 0
-987 -988 0
989 990 0
-989 -990 0
991 992 0
-991 -992 0
993 994 0
-993 -994 0
995 996 0
-995 -996 0
997 998 0
-997 -998 0
999 1000 0
-999 -1000 0
1001 1002 0
-1001 -1002 0
1003 1004 0
-1003 -1004 0
1005 1006 0
-1005 -1006 0
1007 1008 0
-1007 -1008 0
1009 1010 0
-1009 -1010 0
1011 1012 0
-1011 -1012 0
1013 1014 0
-1013 -1014 0
1015 1016 0
-1015 -1016 0
1017 1018 0
-1017 -1018 0
1019 1020 0
-1019 -1020 0
1021 1022 0
-1021 -1022 0
1023 1024 0
-1023 -1024 0
1025 1026 0
-1025 -1026 0
1027 1028 0
-1027 -1028 0
1029 1030 0
-1029 -1030 0
1031 1032 0
-1031 -1032 0
1033 1034 0
-1033 -1034 0
1035 1036 0
-1035 -1036 0
1037 1038 0
-1037 -1038 0
1039 1040 0
-1039 -1040 0
1041 1042 0
-1041 -1042 0
1043 1044 0
-1043 -1044 0
1045 1046 0
-1045 -1046 0
1047 1048 0
-1047 -1048 0
1049 1050 0
-1049 -1050 0
1051 1052 0
-1051 -1052 0
1053 1054 0
-1053 -1054 0
1055 1056 0
-1055 -1056 0
1057 1058 0
-1057 -1058 0
1059 1060 0
-1059 -1060 0
1061 1062 0
-1061 -1062 0
1063 1064 0
-1063 -1064 0
1065 1066 0
-1065 -1066 0
1067 1068 0
-1067 -1068 0
1069 1070 0
-1069 -1070 0
1071 1072 0
-1071 -1072 0
1073 1074 0
-1073 -1074 0
1075 1076 0
-1075 -1076 0
1077 1078 0
-1077 -1078 0
1079 1080 0
-1079 -1080 0
1081 1082 0
-1081 -1082 0
1083 1084 0
-1083 -1084 0
1085 1086 0
-1085 -1086 0
1087 1088 0
-1087 -1088 0
1089 1090 0
-1089 -1090 0
1091 1092 0
-1091 -1092 0
1093 1094 0
-1093 -1094 0
1095 1096 0
-1095 -1096 0
1097 1098 0
-1097 -1098 0
1099 1100 0
-1099 -1100 0
1101 1102 0
-1101 -1102 0
1103 1104 0
-1103 -1104 0
1105 1106 0
-1105 -1106 0
1107 1108 0
-1107 -1108 0
1109 1110 0
-1109 -1110 0
1111 1112 0
-1111 -1112 0
1113 1114 0
-1113 -1114 0
1115 1116 0
-1115 -1116 0
1117 1118 0
-1117 -1118 0
1119 1120 0
-1119 -1120 0
1121 1122 0
-1121 -1122 0
1123 1124 0
-1123 -1124 0
1125 1126 0
-1125 -1126 0
1127 1128 0
-1127 -1128 0
1129 1130 0
-1129 -1130 0
1131 1132 0
-1131 -1132 0
1133 1134 0
-1133 -1134 0
1135 1136 0
-1135 -1136 0
1137 1138 0
-1137 -1138 0
1139 1140 0
-1139 -1140 0
1141 1142 0
-1141 -1142 0
1143 1144 0
-1143 -1144 0
1145 1146 0
-1145 -1146 0
1147 1148 0
-1147 -1148 0
1149 1150 0
-1149 -1150 0
1151 1152 0
-1151 -1152 0
1153 1154 0
-1153 -1154 0
1155 1156 0
-1155 -1156 0
1157 1158 0
-1157 -1158 0
1159 1160 0
-1159 -1160 0
1161 1162 0
-1161 -1162 0
1163 1164 0
-1163 -1164 0
1165 1166 0
-1165 -1166 0
1167 1168 0
-1167 -1168 0
1169 1170 0
-1169 -1170 0
1171 1172 0
-1171 -1172 0
1173 1174 0
-1173 -1174 0
1175 1176 0
-1175 -1176 0
1177 1178 0
-1177 -1178 0
1179 1180 0
-1179 -1180 0
1181 1182 0
-1181 -1182 0
1183 1184 0
-1183 -1184 0
1185 1186 0
-1185 -1186 0
1187 1188 0
-1187 -1188 0
1189 1190 0
-1189 -1190 0
1191 1192 0
-1191 -1192 0
1193 1194 0
-1193 -1194 0
1195 1196 0
-1195 -1196 0
1197 1198 0
-1197 -1198 0
1199 1200 0
-1199 -1200 0
1201 1202 0
-1201 -1202 0
1203 1204 0
-1203 -1204 0
1205 1206 0
-1205 -1206 0
1207 1208 0
-1207 -1208 0
1209 1210 0
-1209 -1210 0
1211 1212 0
-1211 -1212 0
1213 1214 0
-1213 -1214 0
1215 1216 0
-1215 -1216 0
1217 1218 0
-1217 -1218 0
1219 1220 0
-1219 -1220 0
1221 1222 0
-1221 -1222 0
1223 1224 0
-1223 -1224 0
1225 1226 0
-1225 -1226 0
1227 1228 0
-1227 -1228 0
1229 1230 0
-1229 -1230 0
1231 1232 0
-1231 -1232 0
1233 1234 0
-1233 -1234 0
1235 1236 0
-1235 -1236 0
1237 1238 0
-1237 -1238 0
1239 1240 0
-1239 -1240 0
1241 1242 0
-1241 -1242 0
1243 1244 0
-1243 -1244 0
1245 1246 0
-1245 -1246 0
1247 1248 0
-1247 -1248 0
1249 1250 0
-1249 -1250 0
1251 1252 0
-1251 -1252 0
1253 1254 0
-1253 -1254 0
1255 1256 0
-1255 -1256 0
1257 1258 0
-1257 -1258 0
1259 1260 0
-1259 -1260 0
1261 1262 0
-1261 -1262 0
1263 1264 0
-1263 -1264 0
1265 1266 0
-1265 -1266 0
1267 1268 0
-1267 -1268 0
1269 1270 0
-1269 -1270 0
1271 1272 0
-1271 -1272 0
1273 1274 0
-1273 -1274 0
1275 1276 0
-1275 -1276 0
1277 1278 0
-1277 -1278 0
1279 1280 0
-1279 -1280 0
1281 1282 0
-1281 -1282 0
1283 1284 0
-1283 -1284 0
1285 1286 0
-1285 -1286 0
1287 1288 0
-1287 -1288 0
1289 1290 0
-1289 -1290 0
1291 1292 0
-1291 -1292 0
1293 1294 0
-1293 -1294 0
1295 1296 0
-1295 -1296 0
1297 1298 0
-1297 -1298 0
1299 1300 0
-1299 -1300 0
1301 1302 0
-1301 -1302 0
1303 1304 0
-1303 -1304 0
1305 1306 0
-1305 -1306 0
1307 1308 0
-1307 -1308 0
1309 1310 0
-1309 -1310 0
1311 1312 0
-1311 -1312 0
1313 1314 0
-1313 -1314 0
1315 1316 0
-1315 -1316 0
1317 1318 0
-1317 -1318 0
1319 1320 0
-1319 -1320 0
1321 1322 0
-1321 -1322 0
1323 1324 0
-1323 -1324 0
1325 1326 0
-1325 -1326 0
1327 1328 0
-1327 -1328 0
1329 1330 0
-1329 -1330 0
1331 1332 0
-1331 -1332 0
1333 1334 0
-1333 -1334 0
1335 1336 0
-1335 -1336 0
1337 1338 0
-1337 -1338 0
1339 1340 0
-1339 -1340 0
1341 1342 0
-1341 -1342 0
1343 1344 0
-1343 -1344 0
1345 1346 0
-1345 -1346 0
1347 1348 0
-1347 -1348 0
1349 1350 0
-1349 -1350 0
1351 1352 0
-1351 -1352 0
1353 1354 0
-1353 -1354 0
1355 1356 0
-1355 -1356 0
1357 1358 0
-1357 -1358 0
1359 1360 0
-1359 -1360 0
1361 1362 0
-1361 -1362 0
1363 1364 0
-1363 -1364 0
1365 1366 0
-1365 -1366 0
1367 1368 0
-1367 -1368 0
1369 1370 0
-1369 -1370 0
1371 1372 0
-1371 -1372 0
1373 1374 0
-1373 -1374 0
1375 1376 0
-1375 -1376 0
1377 1378 0
-1377 -1378 0
1379 1380 0
-1379 -1380 0
1381 1382 0
-1381 -1382 0
1383 1384 0
-1383 -1384 0
1385 1386 0
-1385 -1386 0
1387 1388 0
-1387 -1388 0
1389 1390 0
-1389 -1390 0
1391 1392 0
-1391 -1392 0
1393 1394 0
-1393 -1394 0
1395 1396 0
-1395 -1396 0
1397 1398 0
-1397 -1398 0
1399 1400 0
-1399 -1400 0
1401 1402 0
-1401 -1402 0
1403 1404 0
-1403 -1404 0
1405 1406 0
-1405 -1406 0
1407 1408 0
-1407 -1408 0
1409 1410 0
-1409 -1410 0
1411 1412 0
-1411 -1412 0
1413 1414 0
-1413 -1414 0
1415 1416 0
-1415 -1416 0
1417 1418 0
-1417 -1418 0
1419 1420 0
-1419 -1420 0
1421 1422 0
-1421 -1422 0
1423 1424 0
-1423 -1424 0
1425 1426 0
-1425 -1426 0
1427 1428 0
-1427 -1428 0
1429 1430 0
-1429 -1430 0
1431 1432 0
-1431 -1432 0
1433 1434 0
-1433 -1434 0
1435 1436 0
-1435 -1436 0
1437 1438 0
-1437 -1438 0
1439 1440 0
-1439 -1440 0
1441 1442 0
-1441 -1442 0
1443 1444 0
-1443 -1444 0
1445 1446 0
-1445 -1446 0
1447 1448 0
-1447 -1448 0
1449 1450 0
-1449 -1450 0
1451 1452 0
-1451 -1452 0
1453 1454 0
-1453 -1454 0
1455 1456 0
-1455 -1456 0
1457 1458 0
-1457 -1458 0
1459 1460 0
-1459 -1460 0
1461 1462 0
-1461 -1462 0
1463 1464 0
-1463 -1464 0
1465 1466 0
-1465 -1466 0
1467 1468 0
-1467 -1468 0
1469 1470 0
-1469 -1470 0
1471 1472 0
-1471 -1472 0
1473 1474 0
-1473 -1474 0
1475 1476 0
-1475 -1476 0
1477 1478 0
-1477 -1478 0
1479 1480 0
-1479 -1480 0
1481 1482 0
-1481 -1482 0
1483 1484 0
-1483 -1484 0
1485 1486 0
-1485 -1486 0
1487 1488 0
-1487 -1488 0
1489 1490 0
-1489 -1490 0
1491 1492 0
-1491 -1492 0
1493 1494 0
-1493 -1494 0
1495 1496 0
-1495 -1496 0
1497 1498 0
-1497 -1498 0
1499 1500 0
-1499 -1500 0
1501 1502 0
-1501 -1502 0
1503 1504 0
-1503 -1504 0
1505 1506 0
-1505 -1506 0
1507 1508 0
-1507 -1508 0
1509 1510 0
-1509 -1510 0
1511 1512 0
-1511 -1512 0
1513 1514 0
-1513 -1514 0
1515 1516 0
-1515 -1516 0
1517 1518 0
-1517 -1518 0
1519 1520 0
-1519 -1520 0
1521 1522 0
-1521 -1522 0
1523 1524 0
-1523 -1524 0
1525 1526 0
-1525 -1526 0
1527 1528 0
-1527 -1528 0
1529 1530 0
-1529 -1530 0
1531 1532 0
-1531 -1532 0
1533 1534 0
-1533 -1534 0
1535 1536 0
-1535 -1536 0
1537 1538 0
-1537 -1538 0
1539 1540 0
-1539 -1540 0
1541 1542 0
-1541 -1542 0
1543 1544 0
-1543 -1544 0
1545 1546 0
-1545 -1546 0
1547 1548 0
-1547 -1548 0
1549 1550 0
-1549 -1550 0
1551 1552 0
-1551 -1552 0
1553 1554 0
-1553 -1554 0
1555 1556 0
-1555 -1556 0
1557 1558 0
-1557 -1558 0
1559 1560 0
-1559 -1560 0
1561 1562 0
-1561 -1562 0
1563 1564 0
-1563 -1564 0
1565 1566 0
-1565 -1566 0
1567 1568 0
-1567 -1568 0
1569 1570 0
-1569 -1570 0
1571 1572 0
-1571 -1572 0
1573 1574 0
-1573 -1574 0
1575 1576 0
-1575 -1576 0
1577 1578 0
-1577 -1578 0
1579 1580 0
-1579 -1580 0
1581 1582 0
-1581 -1582 0
1583 1584 0
-1583 -1584 0
1585 1586 0
-1585 -1586 0
1587 1588 0
-1587 -1588 0
1589 1590 0
-1589 -1590 0
1591 1592 0
-1591 -1592 0
1593 1594 0
-1593 -1594 0
1595 1596 0
-1595 -1596 0
1597 1598 0
-1597 -1598 0
1599 1600 0
-1599 -1600 0
1601 1602 0
-1601 -1602 0
1603 1604 0
-1603 -1604 0
1605 1606 0
-1605 -1606 0
1607 1608 0
-1607 -1608 0
1609 1610 0
-1609 -1610 0
1611 1612 0
-1611 -1612 0
1613 1614 0
-1613 -1614 0
1615 1616 0
-1615 -1616 0
1617 1618 0
-1617 -1618 0
1619 1620 0
-1619 -1620 0
1621 1622 0
-1621 -1622 0
1623 1624 0
-1623 -1624 0
1625 1626 0
-1625 -1626 0
1627 1628 0
-1627 -1628 0
1629 1630 0
-1629 -1630 0
1631 1632 0
-1631 -1632 0
1633 1634 0
-1633 -1634 0
1635 1636 0
-1635 -1636 0
1637 1638 0
-1637 -1638 0
1639 1640 0
-1639 -1640 0
1641 1642 0
-1641 -1642 0
1643 1644 0
-1643 -1644 0
1645 1646 0
-1645 -1646 0
1647 1648 0
-1647 -1648 0
1649 1650 0
-1649 -1650 0
1651 1652 0
-1651 -1652 0
1653 1654 0
-1653 -1654 0
1655 1656 0
-1655 -1656 0
1657 1658 0
-1657 -1658 0
1659 1660 0
-1659 -1660 0
1661 1662 0
-1661 -1662 0
1663 1664 0
-1663 -1664 0
1665 1666 0
-1665 -1666 0
1667 1668 0
-1667 -1668 0
1669 1670 0
-1669 -1670 0
1671 1672 0
-1671 -1672 0
1673 1674 0
-1673 -1674 0
1675 1676 0
-1675 -1676 0
1677 1678 0
-1677 -1678 0
1679 1680 0
-1679 -1680 0
1681 1682 0
-1681 -1682 0
1683 1684 0
-1683 -1684 0
1685 1686 0
-1685 -1686 0
1687 1688 0
-1687 -1688 0
1689 1690 0
-1689 -1690 0
1691 1692 0
-1691 -1692 0
1693 1694 0
-1693 -1694 0
1695 1696 0
-1695 -1696 0
1697 1698 0
-1697 -1698 0
1699 1700 0
-1699 -1700 0
1701 1702 0
-1701 -1702 0
1703 1704 0
-1703 -1704 0
1705 1706 0
-1705 -1706 0
1707 1708 0
-1707 -1708 0
1709 1710 0
-1709 -1710 0
1711 1712 0
-1711 -1712 0
1713 1714 0
-1713 -1714 0
1715 1716 0
-1715 -1716 0
1717 1718 0
-1717 -1718 0
1719 1720 0
-1719 -1720 0
1721 1722 0
-1721 -1722 0
1723 1724 0
-1723 -1724 0
1725 1726 0
-1725 -1726 0
1727 1728 0
-1727 -1728 0
1729 1730 0
-1729 -1730 0
1731 1732 0
-1731 -1732 0
1733 1734 0
-1733 -1734 0
1735 1736 0
-1735 -1736 0
1737 1738 0
-1737 -1738 0
1739 1740 0
-1739 -1740 0
1741 1742 0
-1741 -1742 0
1743 1744 0
-1743 -1744 0
1745 1746 0
-1745 -1746 0
1747 1748 0
-1747 -1748 0
1749 1750 0
-1749 -1750 0
1751 1752 0
-1751 -1752 0
1753 1754 0
-1753 -1754 0
1755 1756 0
-1755 -1756 0
1757 1758 0
-1757 -1758 0
1759 1760 0
-1759 -1760 0
1761 1762 0
-1761 -1762 0
1763 1764 0
-1763 -1764 0
1765 1766 0
-1765 -1766 0
1767 1768 0
-1767 -1768 0
1769 1770 0
-1769 -1770 0
1771 1772 0
-1771 -1772 0
1773 1774 0
-1773 -1774 0
1775 1776 0
-1775 -1776 0
1777 1778 0
-1777 -1778 0
1779 1780 0
-1779 -1780 0
1781 1782 0
-1781 -1782 0
1783 1784 0
-1783 -1784 0
1785 1786 0
-1785 -1786 0
1787 1788 0
-1787 -1788 0
1789 1790 0
-1789 -1790 0
1791 1792 0
-1791 -1792 0
1793 1794 0
-1793 -1794 0
1795 1796 0
-1795 -1796 0
1797 1798 0
-1797 -1798 0
1799 1800 0
-1799 -1800 0
1801 1802 0
-1801 -1802 0
1803 1804 0
-1803 -1804 0
1805 1806 0
-1805 -1806 0
1807 1808 0
-1807 -1808 0
1809 1810 0
-1809 -1810 0
1811 1812 0
-1811 -1812 0
1813 1814 0
-1813 -1814 0
1815 1816 0
-1815 -1816 0
1817 1818 0
-1817 -1818 0
1819 1820 0
-1819 -1820 0
1821 1822 0
-1821 -1822 0
1823 1824 0
-1823 -1824 0
1825 1826 0
-1825 -1826 0
1827 1828 0
-1827 -1828 0
1829 1830 0
-1829 -1830 0
1831 1832 0
-1831 -1832 0
1833 1834 0
-1833 -1834 0
1835 1836 0
-1835 -1836 0
1837 1838 0
-1837 -1838 0
1839 1840 0
-1839 -1840 0
1841 1842 0
-1841 -1842 0
1843 1844 0
-1843 -1844 0
1845 1846 0
-1845 -1846 0
1847 1848 0
-1847 -1848 0
1849 1850 0
-1849 -1850 0
1851 1852 0
-1851 -1852 0
1853 1854 0
-1853 -1854 0
1855 1856 0
-1855 -1856 0
1857 1858 0
-1857 -1858 0
1859 1860 0
-1859 -1860 0
1861 1862 0
-1861 -1862 0
1863 1864 0
-1863 -1864 0
1865 1866 0
-1865 -1866 0
1867 1868 0
-1867 -1868 0
1869 1870 0
-1869 -1870 0
1871 1872 0
-1871 -1872 0
1873 1874 0
-1873 -1874 0
1875 1876 0
-1875 -1876 0
1877 1878 0
-1877 -1878 0
1879 1880 0
-1879 -1880 0
1881 1882 0
-1881 -1882 0
1883 1884 0
-1883 -1884 0
1885 1886 0
-1885 -1886 0
1887 1888 0
-1887 -1888 0
1889 1890 0
-1889 -1890 0
1891 1892 0
-1891 -1892 0
1893 1894 0
-1893 -1894 0
1895 1896 0
-1895 -1896 0
1897 1898 0
-1897 -1898 0
1899 1900 0
-1899 -1900 0
1901 1902 0
-1901 -1902 0
1903 1904 0
-1903 -1904 0
1905 1906 0
-1905 -1906 0
1907 1908 0
-1907 -1908 0
1909 1910 0
-1909 -1910 0
1911 1912 0
-1911 -1912 0
1913 1914 0
-1913 -1914 0
1915 1916 0
-1915 -1916 0
1917 1918 0
-1917 -1918 0
1919 1920 0
-1919 -1920 0
1921 1922 0
-1921 -1922 0
1923 1924 0
-1923 -1924 0
1925 1926 0
-1925 -1926 0
1927 1928 0
-1927 -1928 0
1929 1930 0
-1929 -1930 0
1931 1932 0
-1931 -1932 0
1933 1934 0
-1933 -1934 0
1935 1936 0
-1935 -1936 0
1937 1938 0
-1937 -1938 0
1939 1940 0
-1939 -1940 0
1941 1942 0
-1941 -1942 0
1943 1944 0
-1943 -1944 0
1945 1946 0
-1945 -1946 0
1947 1948 0
-1947 -1948 0
1949 1950 0
-1949 -1950 0
1951 1952 0
-1951 -1952 0
1953 1954 0
-1953 -1954 0
1955 1956 0
-1955 -1956 0
1957 1958 0
-1957 -1958 0
1959 1960 0
-1959 -1960 0
1961 1962 0
-1961 -1962 0
1963 1964 0
-1963 -1964 0
1965 1966 0
-1965 -1966 0
1967 1968 0
-1967 -1968 0
1969 1970 0
-1969 -1970 0
1971 1972 0
-1971 -1972 0
1973 1974 0
-1973 -1974 0
1975 1976 0
-1975 -1976 0
1977 1978 0
-1977 -1978 0
1979 1980 0
-1979 -1980 0
1981 1982 0
-1981 -1982 0
1983 1984 0
-1983 -1984 0
1985 1986 0
-1985 -1986 0
1987 1988 0
-1987 -1988 0
1989 1990 0
-1989 -1990 0
1991 1992 0
-1991 -1992 0
1993 1994 0
-1993 -1994 0
1995 1996 0
-1995 -1996 0
1997 1998 0
-1997 -1998 0
1999 2000 0
-1999 -2000 0
2001 2002 0
-2001 -2002 0
2003 2004 0
-2003 -2004 0
2005 2006 0
-2005 -2006 0
2007 2008 0
-2007 -2008 0
2009 2010 0
-2009 -2010 0
2011 2012 0
-2011 -2012 0
2013 2014 0
-2013 -2014 0
2015 2016 0
-2015 -2016 0
2017 2018 0
-2017 -2018 0
2019 2020 0
-2019 -2020 0
2021 2022 0
-2021 -2022 0
2023 2024 0
-2023 -2024 0
2025 2026 0
-2025 -2026 0
2027 2028 0
-2027 -2028 0
2029 2030 0
-2029 -2030 0
2031 2032 0
-2031 -2032 0
2033 2034 0
-2033 -2034 0
2035 2036 0
-2035 -2036 0
2037 2038 0
-2037 -2038 0
2039 2040 0
-2039 -2040 0
2041 2042 0
-2041 -2042 0
2043 2044 0
-2043 -2044 0
2045 2046 0
-2045 -2046 0
2047 2048 0
-2047 -2048 0
2049 2050 0
-2049 -2050 0
2051 2052 0
-2051 -2052 0
2053 2054 0
-2053 -2054 0
2055 2056 0
-2055 -2056 0
2057 2058 0
-2057 -2058 0
2059 2060 0
-2059 -2060 0
2061 2062 0
-2061 -2062 0
2063 2064 0
-2063 -2064 0
2065 2066 0
-2065 -2066 0
2067 2068 0
-2067 -2068 0
2069 2070 0
-2069 -2070 0
2071 2072 0
-2071 -2072 0
2073 2074 0
-2073 -2074 0
2075 2076 0
-2075 -2076 0
2077 2078 0
-2077 -2078 0
2079 2080 0
-2079 -2080 0
2081 2082 0
-2081 -2082 0
2083 2084 0
-2083 -2084 0
2085 2086 0
-2085 -2086 0
2087 2088 0
-2087 -2088 0
2089 2090 0
-2089 -2090 0
2091 2092 0
-2091 -2092 0
2093 2094 0
-2093 -2094 0
2095 2096 0
-2095 -2096 0
2097 2098 0
-2097 -2098 0
2099 2100 0
-2099 -2100 0
2101 2102 0
-2101 -2102 0
2103 2104 0
-2103 -2104 0
2105 2106 0
-2105 -2106 0
2107 2108 0
-2107 -2108 0
2109 2110 0
-2109 -2110 0
2111 2112 0
-2111 -2112 0
2113 2114 0
-2113 -2114 0
2115 2116 0
-2115 -2116 0
2117 2118 0
-2117 -2118 0
2119 2120 0
-2119 -2120 0
2121 2122 0
-2121 -2122 0
2123 2124 0
-2123 -2124 0
2125 2126 0
-2125 -2126 0
2127 2128 0
-2127 -2128 0
2129 2130 0
-2129 -2130 0
2131 2132 0
-2131 -2132 0
2133 2134 0
-2133 -2134 0
2135 2136 0
-2135 -2136 0
2137 2138 0
-2137 -2138 0
2139 2140 0
-2139 -2140 0
2141 2142 0
-2141 -2142 0
2143 2144 0
-2143 -2144 0
2145 2146 0
-2145 -2146 0
2147 2148 0
-2147 -2148 0
2149 2150 0
-2149 -2150 0
2151 2152 0
-2151 -2152 0
2153 2154 0
-2153 -2154 0
2155 2156 0
-2155 -2156 0
2157 2158 0
-2157 -2158 0
2159 2160 0
-2159 -2160 0
2161 2162 0
-2161 -2162 0
2163 2164 0
-2163 -2164 0
2165 2166 0
-2165 -2166 0
2167 2168 0
-2167 -2168 0
2169 2170 0
-2169 -2170 0
2171 2172 0
-2171 -2172 0
2173 2174 0
-2173 -2174 0
2175 2176 0
-2175 -2176 0
2177 2178 0
-2177 -2178 0
2179 2180 0
-2179 -2180 0
2181 2182 0
-2181 -2182 0
2183 2184 0
-2183 -2184 0
2185 2186 0
-2185 -2186 0
2187 2188 0
-2187 -2188 0
2189 2190 0
-2189 -2190 0
2191 2192 0
-2191 -2192 0
2193 2194 0
-2193 -2194 0
2195 2196 0
-2195 -2196 0
2197 2198 0
-2197 -2198 0
2199 2200 0
-2199 -2200 0
2201 2202 0
-2201 -2202 0
2203 2204 0
-2203 -2204 0
2205 2206 0
-2205 -2206 0
2207 2208 0
-2207 -2208 0
2209 2210 0
-2209 -2210 0
2211 2212 0
-2211 -2212 0
2213 2214 0
-2213 -2214 0
2215 2216 0
-2215 -2216 0
2217 2218 0
-2217 -2218 0
2219 2220 0
-2219 -2220 0
2221 2222 0
-2221 -2222 0
2223 2224 0
-2223 -2224 0
2225 2226 0
-2225 -2226 0
2227 2228 0
-2227 -2228 0
2229 2230 0
-2229 -2230 0
2231 2232 0
-2231 -2232 0
2233 2234 0
-2233 -2234 0
2235 2236 0
-2235 -2236 0
2237 2238 0
-2237 -2238 0
2239 2240 0
-2239 -2240 0
2241 2242 0
-2241 -2242 0
2243 2244 0
-2243 -2244 0
2245 2246 0
-2245 -2246 0
2247 2248 0
-2247 -2248 0
2249 2250 0
-2249 -2250 0
2251 2252 0
-2251 -2252 0
2253 2254 0
-2253 -2254 0
2255 2256 0
-2255 -2256 0
2257 2258 0
-2257 -2258 0
2259 2260 0
-2259 -2260 0
2261 2262 0
-2261 -2262 0
2263 2264 0
-2263 -2264 0
2265 2266 0
-2265 -2266 0
2267 2268 0
-2267 -2268 0
2269 2270 0
-2269 -2270 0
2271 2272 0
-2271 -2272 0
2273 2274 0
-2273 -2274 0
2275 2276 0
-2275 -2276 0
2277 2278 0
-2277 -2278 0
2279 2280 0
-2279 -2280 0
2281 2282 0
-2281 -2282 0
2283 2284 0
-2283 -2284 0
2285 2286 0
-2285 -2286 0
2287 2288 0
-2287 -2288 0
2289 2290 0
-2289 -2290 0
2291 2292 0
-2291 -2292 0
2293 2294 0
-2293 -2294 0
2295 2296 0
-2295 -2296 0
2297 2298 0
-2297 -2298 0
2299 2300 0
-2299 -2300 0
2301 2302 0
-2301 -2302 0
2303 2304 0
-2303 -2304 0
2305 2306 0
-2305 -2306 0
2307 2308 0
-2307 -2308 0
2309 2310 0
-2309 -2310 0
2311 2312 0
-2311 -2312 0
2313 2314 0
-2313 -2314 0
2315 2316 0
-2315 -2316 0
2317 2318 0
-2317 -2318 0
2319 2320 0
-2319 -2320 0
2321 2322 0
-2321 -2322 0
2323 2324 0
-2323 -2324 0
2325 2326 0
-2325 -2326 0
2327 2328 0
-2327 -2328 0
2329 2330 0
-2329 -2330 0
2331 2332 0
-2331 -2332 0
2333 2334 0
-2333 -2334 0
2335 2336 0
-2335 -2336 0
2337 2338 0
-2337 -2338 0
2339 2340 0
-2339 -2340 0
2341 2342 0
-2341 -2342 0
2343 2344 0
-2343 -2344 0
2345 2346 0
-2345 -2346 0
2347 2348 0
-2347 -2348 0
2349 2350 0
-2349 -2350 0
2351 2352 0
-2351 -2352 0
2353 2354 0
-2353 -2354 0
2355 2356 0
-2355 -2356 0
2357 2358 0
-2357 -2358 0
2359 2360 0
-2359 -2360 0
2361 2362 0
-2361 -2362 0
2363 2364 0
-2363 -2364 0
2365 2366 0
-2365 -2366 0
2367 2368 0
-2367 -2368 0
2369 2370 0
-2369 -2370 0
2371 2372 0
-2371 -2372 0
2373 2374 0
-2373 -2374 0
2375 2376 0
-2375 -2376 0
2377 2378 0
-2377 -2378 0
2379 2380 0
-2379 -2380 0
2381 2382 0
-2381 -2382 0
2383 2384 0
-2383 -2384 0
2385 2386 0
-2385 -2386 0
2387 2388 0
-2387 -2388 0
2389 2390 0
-2389 -2390 0
2391 2392 0
-2391 -2392 0
2393 2394 0
-2393 -2394 0
2395 2396 0
-2395 -2396 0
2397 2398 0
-2397 -2398 0
2399 2400 0
-2399 -2400 0
2401 2402 0
-2401 -2402 0
2403 2404 0
-2403 -2404 0
2405 2406 0
-2405 -2406 0
2407 2408 0
-2407 -2408 0
2409 2410 0
-2409 -2410 0
2411 2412 0
-2411 -2412 0
2413 2414 0
-2413 -2414 0
2415 2416 0
-2415 -2416 0
2417 2418 0
-2417 -2418 0
2419 2420 0
-2419 -2420 0
2421 2422 0
-2421 -2422 0
2423 2424 0
-2423 -2424 0
2425 2426 0
-2425 -2426 0
2427 2428 0
-2427 -2428 0
2429 2430 0
-2429 -2430 0
2431 2432 0
-2431 -2432 0
2433 2434 0
-2433 -2434 0
2435 2436 0
-2435 -2436 0
2437 2438 0
-2437 -2438 0
2439 2440 0
-2439 -2440 0
2441 2442 0
-2441 -2442 0
2443 2444 0
-2443 -2444 0
2445 2446 0
-2445 -2446 0
2447 2448 0
-2447 -2448 0
2449 2450 0
-2449 -2450 0
2451 2452 0
-2451 -2452 0
2453 2454 0
-2453 -2454 0
2455 2456 0
-2455 -2456 0
2457 2458 0
-2457 -2458 0
2459 2460 0
-2459 -2460 0
2461 2462 0
-2461 -2462 0
2463 2464 0
-2463 -2464 0
2465 2466 0
-2465 -2466 0
2467 2468 0
-2467 -2468 0
2469 2470 0
-2469 -2470 0
2471 2472 0
-2471 -2472 0
2473 2474 0
-2473 -2474 0
2475 2476 0
-2475 -2476 0
2477 2478 0
-2477 -2478 0
2479 2480 0
-2479 -2480 0
2481 2482 0
-2481 -2482 0
2483 2484 0
-2483 -2484 0
2485 2486 0
-2485 -2486 0
2487 2488 0
-2487 -2488 0
2489 2490 0
-2489 -2490 0
2491 2492 0
-2491 -2492 0
2493 2494 0
-2493 -2494 0
2495 2496 0
-2495 -2496 0
2497 2498 0
-2497 -2498 0
2499 2500 0
-2499 -2500 0
2501 2502 0
-2501 -2502 0
2503 2504 0
-2503 -2504 0
2505 2506 0
-2505 -2506 0
2507 2508 0
-2507 -2508 0
2509 2510 0
-2509 -2510 0
2511 2512 0
-2511 -2512 0
2513 2514 0
-2513 -2514 0
2515 2516 0
-2515 -2516 0
2517 2518 0
-2517 -2518 0
2519 2520 0
-2519 -2520 0
2521 2522 0
-2521 -2522 0
2523 2524 0
-2523 -2524 0
2525 2526 0
-2525 -2526 0
2527 2528 0
-2527 -2528 0
2529 2530 0
-2529 -2530 0
2531 2532 0
-2531 -2532 0
2533 2534 0
-2533 -2534 0
2535 2536 0
-2535 -2536 0
2537 2538 0
-2537 -2538 0
2539 2540 0
-2539 -2540 0
2541 2542 0
-2541 -2542 0
2543 2544 0
-2543 -2544 0
2545 2546 0
-2545 -2546 0
2547 2548 0
-2547 -2548 0
2549 2550 0
-2549 -2550 0
2551 2552 0
-2551 -2552 0
2553 2554 0
-2553 -2554 0
2555 2556 0
-2555 -2556 0
2557 2558 0
-2557 -2558 0
2559 2560 0
-2559 -2560 0
2561 2562 0
-2561 -2562 0
2563 2564 0
-2563 -2564 0
2565 2566 0
-2565 -2566 0
2567 2568 0
-2567 -2568 0
2569 2570 0
-2569 -2570 0
2571 2572 0
-2571 -2572 0
2573 2574 0
-2573 -2574 0
2575 2576 0
-2575 -2576 0
2577 2578 0
-2577 -2578 0
2579 2580 0
-2579 -2580 0
2581 2582 0
-2581 -2582 0
2583 2584 0
-2583 -2584 0
2585 2586 0
-2585 -2586 0
2587 2588 0
-2587 -2588 0
2589 2590 0
-2589 -2590 0
2591 2592 0
-2591 -2592 0
2593 2594 0
-2593 -2594 0
2595 2596 0
-2595 -2596 0
2597 2598 0
-2597 -2598 0
2599 2600 0
-2599 -2600 0
2601 2602 0
-2601 -2602 0
2603 2604 0
-2603 -2604 0
2605 2606 0
-2605 -2606 0
2607 2608 0
-2607 -2608 0
2609 2610 0
-2609 -2610 0
2611 2612 0
-2611 -2612 0
2613 2614 0
-2613 -2614 0
2615 2616 0
-2615 -2616 0
2617 2618 0
-2617 -2618 0
2619 2620 0
-2619 -2620 0
2621 2622 0
-2621 -2622 0
2623 2624 0
-2623 -2624 0
2625 2626 0
-2625 -2626 0
2627 2628 0
-2627 -2628 0
2629 2630 0
-2629 -2630 0
2631 2632 0
-2631 -2632 0
2633 2634 0
-2633 -2634 0
2635 2636 0
-2635 -2636 0
2637 2638 0
-2637 -2638 0
2639 2640 0
-2639 -2640 0
2641 2642 0
-2641 -2642 0
2643 2644 0
-2643 -2644 0
2645 2646 0
-2645 -2646 0
2647 2648 0
-2647 -2648 0
2649 2650 0
-2649 -2650 0
2651 2652 0
-2651 -2652 0
2653 2654 0
-2653 -2654 0
2655 2656 0
-2655 -2656 0
2657 2658 0
-2657 -2658 0
2659 2660 0
-2659 -2660 0
2661 2662 0
-2661 -2662 0
2663 2664 0
-2663 -2664 0
2665 2666 0
-2665 -2666 0
2667 2668 0
-2667 -2668 0
2669 2670 0
-2669 -2670 0
2671 2672 0
-2671 -2672 0
2673 2674 0
-2673 -2674 0
2675 2676 0
-2675 -2676 0
2677 2678 0
-2677 -2678 0
2679 2680 0
-2679 -2680 0
2681 2682 0
-2681 -2682 0
2683 2684 0
-2683 -2684 0
2685 2686 0
-2685 -2686 0
2687 2688 0
-2687 -2688 0
2689 2690 0
-2689 -2690 0
2691 2692 0
-2691 -2692 0
2693 2694 0
-2693 -2694 0
2695 2696 0
-2695 -2696 0
2697 2698 0
-2697 -2698 0
2699 2700 0
-2699 -2700 0
2701 2702 0
-2701 -2702 0
2703 2704 0
-2703 -2704 0
2705 2706 0
-2705 -2706 0
2707 2708 0
-2707 -2708 0
2709 2710 0
-2709 -2710 0
2711 2712 0
-2711 -2712 0
2713 2714 0
-2713 -2714 0
2715 2716 0
-2715 -2716 0
2717 2718 0
-2717 -2718 0
2719 2720 0
-2719 -2720 0
2721 2722 0
-2721 -2722 0
2723 2724 0
-2723 -2724 0
2725 2726 0
-2725 -2726 0
2727 2728 0
-2727 -2728 0
2729 2730 0
-2729 -2730 0
2731 2732 0
-2731 -2732 0
2733 2734 0
-2733 -2734 0
2735 2736 0
-2735 -2736 0
2737 2738 0
-2737 -2738 0
2739 2740 0
-2739 -2740 0
2741 2742 0
-2741 -2742 0
2743 2744 0
-2743 -2744 0
2745 2746 0
-2745 -2746 0
2747 2748 0
-2747 -2748 0
2749 2750 0
-2749 -2750 0
2751 2752 0
-2751 -2752 0
2753 2754 0
-2753 -2754 0
2755 2756 0
-2755 -2756 0
2757 2758 0
-2757 -2758 0
2759 2760 0
-2759 -2760 0
2761 2762 0
-2761 -2762 0
2763 2764 0
-2763 -2764 0
2765 2766 0
-2765 -2766 0
2767 2768 0
-2767 -2768 0
2769 2770 0
-2769 -2770 0
2771 2772 0
-2771 -2772 0
2773 2774 0
-2773 -2774 0
2775 2776 0
-2775 -2776 0
2777 2778 0
-2777 -2778 0
2779 2780 0
-2779 -2780 0
2781 2782 0
-2781 -2782 0
2783 2784 0
-2783 -2784 0
2785 2786 0
-2785 -2786 0
2787 2788 0
-2787 -2788 0
2789 2790 0
-2789 -2790 0
2791 2792 0
-2791 -2792 0
2793 2794 0
-2793 -2794 0
2795 2796 0
-2795 -2796 0
2797 2798 0
-2797 -2798 0
2799 2800 0
-2799 -2800 0
2801 2802 0
-2801 -2802 0
2803 2804 0
-2803 -2804 0
2805 2806 0
-2805 -2806 0
2807 2808 0
-2807 -2808 0
2809 2810 0
-2809 -2810 0
2811 2812 0
-2811 -2812 0
2813 2814 0
-2813 -2814 0
2815 2816 0
-2815 -2816 0
2817 2818 0
-2817 -2818 0
2819 2820 0
-2819 -2820 0
2821 2822 0
-2821 -2822 0
2823 2824 0
-2823 -2824 0
2825 2826 0
-2825 -2826 0
2827 2828 0
-2827 -2828 0
2829 2830 0
-2829 -2830 0
2831 2832 0
-2831 -2832 0
2833 2834 0
-2833 -2834 0
2835 2836 0
-2835 -2836 0
2837 2838 0
-2837 -2838 0
2839 2840 0
-2839 -2840 0
2841 2842 0
-2841 -2842 0
2843 2844 0
-2843 -2844 0
2845 2846 0
-2845 -2846 0
2847 2848 0
-2847 -2848 0
2849 2850 0
-2849 -2850 0
2851 2852 0
-2851 -2852 0
2853 2854 0
-2853 -2854 0
2855 2856 0
-2855 -2856 0
2857 2858 0
-2857 -2858 0
2859 2860 0
-2859 -2860 0
2861 2862 0
-2861 -2862 0
2863 2864 0
-2863 -2864 0
2865 2866 0
-2865 -2866 0
2867 2868 0
-2867 -2868 0
2869 2870 0
-2869 -2870 0
2871 2872 0
-2871 -2872 0
2873 2874 0
-2873 -2874 0
2875 2876 0
-2875 -2876 0
2877 2878 0
-2877 -2878 0
2879 2880 0
-2879 -2880 0
2881 2882 0
-2881 -2882 0
2883 2884 0
-2883 -2884 0
2885 2886 0
-2885 -2886 0
2887 2888 0
-2887 -2888 0
2889 2890 0
-2889 -2890 0
2891 2892 0
-2891 -2892 0
2893 2894 0
-2893 -2894 0
2895 2896 0
-2895 -2896 0
2897 2898 0
-2897 -2898 0
2899 2900 0
-2899 -2900 0
2901 2902 0
-2901 -2902 0
2903 2904 0
-2903 -2904 0
2905 2906 0
-2905 -2906 0
2907 2908 0
-2907 -2908 0
2909 2910 0
-2909 -2910 0
2911 2912 0
-2911 -2912 0
2913 2914 0
-2913 -2914 0
2915 2916 0
-2915 -2916 0
2917 2918 0
-2917 -2918 0
2919 2920 0
-2919 -2920 0
2921 2922 0
-2921 -2922 0
2923 2924 0
-2923 -2924 0
2925 2926 0
-2925 -2926 0
2927 2928 0
-2927 -2928 0
2929 2930 0
-2929 -2930 0
2931 2932 0
-2931 -2932 0
2933 2934 0
-2933 -2934 0
2935 2936 0
-2935 -2936 0
2937 2938 0
-2937 -2938 0
2939 2940 0
-2939 -2940 0
2941 2942 0
-2941 -2942 0
2943 2944 0
-2943 -2944 0
2945 2946 0
-2945 -2946 0
2947 2948 0
-2947 -2948 0
2949 2950 0
-2949 -2950 0
2951 2952 0
-2951 -2952 0
2953 2954 0
-2953 -2954 0
2955 2956 0
-2955 -2956 0
2957 2958 0
-2957 -2958 0
2959 2960 0
-2959 -2960 0
2961 2962 0
-2961 -2962 0
2963 2964 0
-2963 -2964 0
2965 2966 0
-2965 -2966 0
2967 2968 0
-2967 -2968 0
2969 2970 0
-2969 -2970 0
2971 2972 0
-2971 -2972 0
2973 2974 0
-2973 -2974 0
2975 2976 0
-2975 -2976 0
2977 2978 0
-2977 -2978 0
2979 2980 0
-2979 -2980 0
2981 2982 0
-2981 -2982 0
2983 2984 0
-2983 -2984 0
2985 2986 0
-2985 -2986 0
2987 2988 0
-2987 -2988 0
2989 2990 0
-2989 -2990 0
2991 2992 0
-2991 -2992 0
2993 2994 0
-2993 -2994 0
2995 2996 0
-2995 -2996 0
2997 2998 0
-2997 -2998 0
2999 3000 0
-2999 -3000 0
3001 3002 0
-3001 -3002 0
3003 3004 0
-3003 -3004 0
3005 3006 0
-3005 -3006 0
3007 3008 0
-3007 -3008 0
3009 3010 0
-3009 -3010 0
3011 3012 0
-3011 -3012 0
3013 3014 0
-3013 -3014 0
3015 3016 0
-3015 -3016 0
3017 3018 0
-3017 -3018 0
3019 3020 0
-3019 -3020 0
3021 3022 0
-3021 -3022 0
3023 3024 0
-3023 -3024 0
3025 3026 0
-3025 -3026 0
3027 3028 0
-3027 -3028 0
3029 3030 0
-3029 -3030 0
3031 3032 0
-3031 -3032 0
3033 3034 0
-3033 -3034 0
3035 3036 0
-3035 -3036 0
3037 3038 0
-3037 -3038 0
3039 3040 0
-3039 -3040 0
3041 3042 0
-3041 -3042 0
3043 3044 0
-3043 -3044 0
3045 3046 0
-3045 -3046 0
3047 3048 0
-3047 -3048 0
3049 3050 0
-3049 -3050 0
3051 3052 0
-3051 -3052 0
3053 3054 0
-3053 -3054 0
3055 3056 0
-3055 -3056 0
3057 3058 0
-3057 -3058 0
3059 3060 0
-3059 -3060 0
3061 3062 0
-3061 -3062 0
3063 3064 0
-3063 -3064 0
3065 3066 0
-3065 -3066 0
3067 3068 0
-3067 -3068 0
3069 3070 0
-3069 -3070 0
3071 3072 0
-3071 -3072 0
3073 3074 0
-3073 -3074 0
3075 3076 0
-3075 -3076 0
3077 3078 0
-3077 -3078 0
3079 3080 0
-3079 -3080 0
3081 3082 0
-3081 -3082 0
3083 3084 0
-3083 -3084 0
3085 3086 0
-3085 -3086 0
3087 3088 0
-3087 -3088 0
3089 3090 0
-3089 -3090 0
3091 3092 0
-3091 -3092 0
3093 3094 0
-3093 -3094 0
3095 3096 0
-3095 -3096 0
3097 3098 0
-3097 -3098 0
3099 3100 0
-3099 -3100 0
3101 3102 0
-3101 -3102 0
3103 3104 0
-3103 -3104 0
3105 3106 0
-3105 -3106 0
3107 3108 0
-3107 -3108 0
3109 3110 0
-3109 -3110 0
3111 3112 0
-3111 -3112 0
3113 3114 0
-3113 -3114 0
3115 3116 0
-3115 -3116 0
3117 3118 0
-3117 -3118 0
3119 3120 0
-3119 -3120 0
3121 3122 0
-3121 -3122 0
3123 3124 0
-3123 -3124 0
3125 3126 0
-3125 -3126 0
3127 3128 0
-3127 -3128 0
3129 3130 0
-3129 -3130 0
3131 3132 0
-3131 -3132 0
3133 3134 0
-3133 -3134 0
3135 3136 0
-3135 -3136 0
3137 3138 0
-3137 -3138 0
3139 3140 0
-3139 -3140 0
3141 3142 0
-3141 -3142 0
3143 3144 0
-3143 -3144 0
3145 3146 0
-3145 -3146 0
3147 3148 0
-3147 -3148 0
3149 3150 0
-3149 -3150 0
3151 3152 0
-3151 -3152 0
3153 3154 0
-3153 -3154 0
3155 3156 0
-3155 -3156 0
3157 3158 0
-3157 -3158 0
3159 3160 0
-3159 -3160 0
3161 3162 0
-3161 -3162 0
3163 3164 0
-3163 -3164 0
3165 3166 0
-3165 -3166 0
3167 3168 0
-3167 -3168 0
3169 3170 0
-3169 -3170 0
3171 3172 0
-3171 -3172 0
3173 3174 0
-3173 -3174 0
3175 3176 0
-3175 -3176 0
3177 3178 0
-3177 -3178 0
3179 3180 0
-3179 -3180 0
3181 3182 0
-3181 -3182 0
3183 3184 0
-3183 -3184 0
3185 3186 0
-3185 -3186 0
3187 3188 0
-3187 -3188 0
3189 3190 0
-3189 -3190 0
3191 3192 0
-3191 -3192 0
3193 3194 0
-3193 -3194 0
3195 3196 0
-3195 -3196 0
3197 3198 0
-3197 -3198 0
3199 3200 0
-3199 -3200 0
3201 3202 0
-3201 -3202 0
3203 3204 0
-3203 -3204 0
3205 3206 0
-3205 -3206 0
3207 3208 0
-3207 -3208 0
3209 3210 0
-3209 -3210 0
3211 3212 0
-3211 -3212 0
3213 3214 0
-3213 -3214 0
3215 3216 0
-3215 -3216 0
3217 3218 0
-3217 -3218 0
3219 3220 0
-3219 -3220 0
3221 3222 0
-3221 -3222 0
3223 3224 0
-3223 -3224 0
3225 3226 0
-3225 -3226 0
3227 3228 0
-3227 -3228 0
3229 3230 0
-3229 -3230 0
3231 3232 0
-3231 -3232 0
3233 3234 0
-3233 -3234 0
3235 3236 0
-3235 -3236 0
3237 3238 0
-3237 -3238 0
3239 3240 0
-3239 -3240 0
3241 3242 0
-3241 -3242 0
3243 3244 0
-3243 -3244 0
3245 3246 0
-3245 -3246 0
3247 3248 0
-3247 -3248 0
3249 3250 0
-3249 -3250 0
3251 3252 0
-3251 -3252 0
3253 3254 0
-3253 -3254 0
3255 3256 0
-3255 -3256 0
3257 3258 0
-3257 -3258 0
3259 3260 0
-3259 -3260 0
3261 3262 0
-3261 -3262 0
3263 3264 0
-3263 -3264 0
3265 3266 0
-3265 -3266 0
3267 3268 0
-3267 -3268 0
3269 3270 0
-3269 -3270 0
3271 3272 0
-3271 -3272 0
3273 3274 0
-3273 -3274 0
3275 3276 0
-3275 -3276 0
3277 3278 0
-3277 -3278 0
3279 3280 0
-3279 -3280 0
3281 3282 0
-3281 -3282 0
3283 3284 0
-3283 -3284 0
3285 3286 0
-3285 -3286 0
3287 3288 0
-3287 -3288 0
3289 3290 0
-3289 -3290 0
3291 3292 0
-3291 -3292 0
3293 3294 0
-3293 -3294 0
3295 3296 0
-3295 -3296 0
3297 3298 0
-3297 -3298 0
3299 3300 0
-3299 -3300 0
3301 3302 0
-3301 -3302 0
3303 3304 0
-3303 -3304 0
3305 3306 0
-3305 -3306 0
3307 3308 0
-3307 -3308 0
3309 3310 0
-3309 -3310 0
3311 3312 0
-3311 -3312 0
3313 3314 0
-3313 -3314 0
3315 3316 0
-3315 -3316 0
3317 3318 0
-3317 -3318 0
3319 3320 0
-3319 -3320 0
3321 3322 0
-3321 -3322 0
3323 3324 0
-3323 -3324 0
3325 3326 0
-3325 -3326 0
3327 3328 0
-3327 -3328 0
3329 3330 0
-3329 -3330 0
3331 3332 0
-3331 -3332 0
3333 3334 0
-3333 -3334 0
3335 3336 0
-3335 -3336 0
3337 3338 0
-3337 -3338 0
3339 3340 0
-3339 -3340 0
3341 3342 0
-3341 -3342 0
3343 3344 0
-3343 -3344 0
3345 3346 0
-3345 -3346 0
3347 3348 0
-3347 -3348 0
3349 3350 0
-3349 -3350 0
3351 3352 0
-3351 -3352 0
3353 3354 0
-3353 -3354 0
3355 3356 0
-3355 -3356 0
3357 3358 0
-3357 -3358 0
3359 3360 0
-3359 -3360 0
3361 3362 0
-3361 -3362 0
3363 3364 0
-3363 -3364 0
3365 3366 0
-3365 -3366 0
3367 3368 0
-3367 -3368 0
3369 3370 0
-3369 -3370 0
3371 3372 0
-3371 -3372 0
3373 3374 0
-3373 -3374 0
3375 3376 0
-3375 -3376 0
3377 3378 0
-3377 -3378 0
3379 3380 0
-3379 -3380 0
3381 3382 0
-3381 -3382 0
3383 3384 0
-3383 -3384 0
3385 3386 0
-3385 -3386 0
3387 3388 0
-3387 -3388 0
3389 3390 0
-3389 -3390 0
3391 3392 0
-3391 -3392 0
3393 3394 0
-3393 -3394 0
3395 3396 0
-3395 -3396 0
3397 3398 0
-3397 -3398 0
3399 3400 0
-3399 -3400 0
3401 3402 0
-3401 -3402 0
3403 3404 0
-3403 -3404 0
3405 3406 0
-3405 -3406 0
3407 3408 0
-3407 -3408 0
3409 3410 0
-3409 -3410 0
3411 3412 0
-3411 -3412 0
3413 3414 0
-3413 -3414 0
3415 3416 0
-3415 -3416 0
3417 3418 0
-3417 -3418 0
3419 3420 0
-3419 -3420 0
3421 3422 0
-3421 -3422 0
3423 3424 0
-3423 -3424 0
3425 3426 0
-3425 -3426 0
3427 3428 0
-3427 -3428 0
3429 3430 0
-3429 -3430 0
3431 3432 0
-3431 -3432 0
3433 3434 0
-3433 -3434 0
3435 3436 0
-3435 -3436 0
3437 3438 0
-3437 -3438 0
3439 3440 0
-3439 -3440 0
3441 3442 0
-3441 -3442 0
3443 3444 0
-3443 -3444 0
3445 3446 0
-3445 -3446 0
3447 3448 0
-3447 -3448 0
3449 3450 0
-3449 -3450 0
3451 3452 0
-3451 -3452 0
3453 3454 0
-3453 -3454 0
3455 3456 0
-3455 -3456 0
3457 3458 0
-3457 -3458 0
3459 3460 0
-3459 -3460 0
3461 3462 0
-3461 -3462 0
3463 3464 0
-3463 -3464 0
3465 3466 0
-3465 -3466 0
3467 3468 0
-3467 -3468 0
3469 3470 0
-3469 -3470 0
3471 3472 0
-3471 -3472 0
3473 3474 0
-3473 -3474 0
3475 3476 0
-3475 -3476 0
3477 3478 0
-3477 -3478 0
3479 3480 0
-3479 -3480 0
3481 3482 0
-3481 -3482 0
3483 3484 0
-3483 -3484 0
3485 3486 0
-3485 -3486 0
3487 3488 0
-3487 -3488 0
3489 3490 0
-3489 -3490 0
3491 3492 0
-3491 -3492 0
3493 3494 0
-3493 -3494 0
3495 3496 0
-3495 -3496 0
3497 3498 0
-3497 -3498 0
3499 3500 0
-3499 -3500 0
3501 3502 0
-3501 -3502 0
3503 3504 0
-3503 -3504 0
3505 3506 0
-3505 -3506 0
3507 3508 0
-3507 -3508 0
3509 3510 0
-3509 -3510 0
3511 3512 0
-3511 -3512 0
3513 3514 0
-3513 -3514 0
3515 3516 0
-3515 -3516 0
3517 3518 0
-3517 -3518 0
3519 3520 0
-3519 -3520 0
3521 3522 0
-3521 -3522 0
3523 3524 0
-3523 -3524 0
3525 3526 0
-3525 -3526 0
3527 3528 0
-3527 -3528 0
3529 3530 0
-3529 -3530 0
3531 3532 0
-3531 -3532 0
3533 3534 0
-3533 -3534 0
3535 3536 0
-3535 -3536 0
3537 3538 0
-3537 -3538 0
3539 3540 0
-3539 -3540 0
3541 3542 0
-3541 -3542 0
3543 3544 0
-3543 -3544 0
3545 3546 0
-3545 -3546 0
3547 3548 0
-3547 -3548 0
3549 3550 0
-3549 -3550 0
3551 3552 0
-3551 -3552 0
3553 3554 0
-3553 -3554 0
3555 3556 0
-3555 -3556 0
3557 3558 0
-3557 -3558 0
3559 3560 0
-3559 -3560 0
3561 3562 0
-3561 -3562 0
3563 3564 0
-3563 -3564 0
3565 3566 0
-3565 -3566 0
3567 3568 0
-3567 -3568 0
3569 3570 0
-3569 -3570 0
3571 3572 0
-3571 -3572 0
3573 3574 0
-3573 -3574 0
3575 3576 0
-3575 -3576 0
3577 3578 0
-3577 -3578 0
3579 3580 0
-3579 -3580 0
3581 3582 0
-3581 -3582 0
3583 3584 0
-3583 -3584 0
3585 3586 0
-3585 -3586 0
3587 3588 0
-3587 -3588 0
3589 3590 0
-3589 -3590 0
3591 3592 0
-3591 -3592 0
3593 3594 0
-3593 -3594 0
3595 3596 0
-3595 -3596 0
3597 3598 0
-3597 -3598 0
3599 3600 0
-3599 -3600 0
3601 3602 0
-3601 -3602 0
3603 3604 0
-3603 -3604 0
3605 3606 0
-3605 -3606 0
3607 3608 0
-3607 -3608 0
3609 3610 0
-3609 -3610 0
3611 3612 0
-3611 -3612 0
3613 3614 0
-3613 -3614 0
3615 3616 0
-3615 -3616 0
3617 3618 0
-3617 -3618 0
3619 3620 0
-3619 -3620 0
3621 3622 0
-3621 -3622 0
3623 3624 0
-3623 -3624 0
3625 3626 0
-3625 -3626 0
3627 3628 0
-3627 -3628 0
3629 3630 0
-3629 -3630 0
3631 3632 0
-3631 -3632 0
3633 3634 0
-3633 -3634 0
3635 3636 0
-3635 -3636 0
3637 3638 0
-3637 -3638 0
3639 3640 0
-3639 -3640 0
3641 3642 0
-3641 -3642 0
3643 3644 0
-3643 -3644 0
3645 3646 0
-3645 -3646 0
3647 3648 0
-3647 -3648 0
3649 3650 0
-3649 -3650 0
3651 3652 0
-3651 -3652 0
3653 3654 0
-3653 -3654 0
3655 3656 0
-3655 -3656 0
3657 3658 0
-3657 -3658 0
3659 3660 0
-3659 -3660 0
3661 3662 0
-3661 -3662 0
3663 3664 0
-3663 -3664 0
3665 3666 0
-3665 -3666 0
3667 3668 0
-3667 -3668 0
3669 3670 0
-3669 -3670 0
3671 3672 0
-3671 -3672 0
3673 3674 0
-3673 -3674 0
3675 3676 0
-3675 -3676 0
3677 3678 0
-3677 -3678 0
3679 3680 0
-3679 -3680 0
3681 3682 0
-3681 -3682 0
3683 3684 0
-3683 -3684 0
3685 3686 0
-3685 -3686 0
3687 3688 0
-3687 -3688 0
3689 3690 0
-3689 -3690 0
3691 3692 0
-3691 -3692 0
3693 3694 0
-3693 -3694 0
3695 3696 0
-3695 -3696 0
3697 3698 0
-3697 -3698 0
3699 3700 0
-3699 -3700 0
3701 3702 0
-3701 -3702 0
3703 3704 0
-3703 -3704 0
3705 3706 0
-3705 -3706 0
3707 3708 0
-3707 -3708 0
3709 3710 0
-3709 -3710 0
3711 3712 0
-3711 -3712 0
3713 3714 0
-3713 -3714 0
3715 3716 0
-3715 -3716 0
3717 3718 0
-3717 -3718 0
3719 3720 0
-3719 -3720 0
3721 3722 0
-3721 -3722 0
3723 3724 0
-3723 -3724 0
3725 3726 0
-3725 -3726 0
3727 3728 0
-3727 -3728 0
3729 3730 0
-3729 -3730 0
3731 3732 0
-3731 -3732 0
3733 3734 0
-3733 -3734 0
3735 3736 0
-3735 -3736 0
3737 3738 0
-3737 -3738 0
3739 3740 0
-3739 -3740 0
3741 3742 0
-3741 -3742 0
3743 3744 0
-3743 -3744 0
3745 3746 0
-3745 -3746 0
3747 3748 0
-3747 -3748 0
3749 3750 0
-3749 -3750 0
3751 3752 0
-3751 -3752 0
3753 3754 0
-3753 -3754 0
3755 3756 0
-3755 -3756 0
3757 3758 0
-3757 -3758 0
3759 3760 0
-3759 -3760 0
3761 3762 0
-3761 -3762 0
3763 3764 0
-3763 -3764 0
3765 3766 0
-3765 -3766 0
3767 3768 0
-3767 -3768 0
3769 3770 0
-3769 -3770 0
3771 3772 0
-3771 -3772 0
3773 3774 0
-3773 -3774 0
3775 3776 0
-3775 -3776 0
3777 3778 0
-3777 -3778 0
3779 3780 0
-3779 -3780 0
3781 3782 0
-3781 -3782 0
3783 3784 0
-3783 -3784 0
3785 3786 0
-3785 -3786 0
3787 3788 0
-3787 -3788 0
3789 3790 0
-3789 -3790 0
3791 3792 0
-3791 -3792 0
3793 3794 0
-3793 -3794 0
3795 3796 0
-3795 -3796 0
3797 3798 0
-3797 -3798 0
3799 3800 0
-3799 -3800 0
3801 3802 0
-3801 -3802 0
3803 3804 0
-3803 -3804 0
3805 3806 0
-3805 -3806 0
3807 3808 0
-3807 -3808 0
3809 3810 0
-3809 -3810 0
3811 3812 0
-3811 -3812 0
3813 3814 0
-3813 -3814 0
3815 3816 0
-3815 -3816 0
3817 3818 0
-3817 -3818 0
3819 3820 0
-3819 -3820 0
3821 3822 0
-3821 -3822 0
3823 3824 0
-3823 -3824 0
3825 3826 0
-3825 -3826 0
3827 3828 0
-3827 -3828 0
3829 3830 0
-3829 -3830 0
3831 3832 0
-3831 -3832 0
3833 3834 0
-3833 -3834 0
3835 3836 0
-3835 -3836 0
3837 3838 0
-3837 -3838 0
3839 3840 0
-3839 -3840 0
3841 3842 0
-3841 -3842 0
3843 3844 0
-3843 -3844 0
3845 3846 0
-3845 -3846 0
3847 3848 0
-3847 -3848 0
3849 3850 0
-3849 -3850 0
3851 3852 0
-3851 -3852 0
3853 3854 0
-3853 -3854 0
3855 3856 0
-3855 -3856 0
3857 3858 0
-3857 -3858 0
3859 3860 0
-3859 -3860 0
3861 3862 0
-3861 -3862 0
3863 3864 0
-3863 -3864 0
3865 3866 0
-3865 -3866 0
3867 3868 0
-3867 -3868 0
3869 3870 0
-3869 -3870 0
3871 3872 0
-3871 -3872 0
3873 3874 0
-3873 -3874 0
3875 3876 0
-3875 -3876 0
3877 3878 0
-3877 -3878 0
3879 3880 0
-3879 -3880 0
3881 3882 0
-3881 -3882 0
3883 3884 0
-3883 -3884 0
3885 3886 0
-3885 -3886 0
3887 3888 0
-3887 -3888 0
3889 3890 0
-3889 -3890 0
3891 3892 0
-3891 -3892 0
3893 3894 0
-3893 -3894 0
3895 3896 0
-3895 -3896 0
3897 3898 0
-3897 -3898 0
3899 3900 0
-3899 -3900 0
3901 3902 0
-3901 -3902 0
3903 3904 0
-3903 -3904 0
3905 3906 0
-3905 -3906 0
3907 3908 0
-3907 -3908 0
3909 3910 0
-3909 -3910 0
3911 3912 0
-3911 -3912 0
3913 3914 0
-3913 -3914 0
3915 3916 0
-3915 -3916 0
3917 3918 0
-3917 -3918 0
3919 3920 0
-3919 -3920 0
3921 3922 0
-3921 -3922 0
3923 3924 0
-3923 -3924 0
3925 3926 0
-3925 -3926 0
3927 3928 0
-3927 -3928 0
3929 3930 0
-3929 -3930 0
3931 3932 0
-3931 -3932 0
3933 3934 0
-3933 -3934 0
3935 3936 0
-3935 -3936 0
3937 3938 0
-3937 -3938 0
3939 3940 0
-3939 -3940 0
3941 3942 0
-3941 -3942 0
3943 3944 0
-3943 -3944 0
3945 3946 0
-3945 -3946 0
3947 3948 0
-3947 -3948 0
3949 3950 0
-3949 -3950 0
3951 3952 0
-3951 -3952 0
3953 3954 0
-3953 -3954 0
3955 3956 0
-3955 -3956 0
3957 3958 0
-3957 -3958 0
3959 3960 0
-3959 -3960 0
3961 3962 0
-3961 -3962 0
3963 3964 0
-3963 -3964 0
3965 3966 0
-3965 -3966 0
3967 3968 0
-3967 -3968 0
3969 3970 0
-3969 -3970 0
3971 3972 0
-3971 -3972 0
3973 3974 0
-3973 -3974 0
3975 3976 0
-3975 -3976 0
3977 3978 0
-3977 -3978 0
3979 3980 0
-3979 -3980 0
3981 3982 0
-3981 -3982 0
3983 3984 0
-3983 -3984 0
3985 3986 0
-3985 -3986 0
3987 3988 0
-3987 -3988 0
3989 3990 0
-3989 -3990 0
3991 3992 0
-3991 -3992 0
3993 3994 0
-3993 -3994 0
3995 3996 0
-3995 -3996 0
3997 3998 0
-3997 -3998 0
3999 4000 0
-3999 -4000 0
4001 4002 0
-4001 -4002 0
4003 4004 0
-4003 -4004 0
4005 4006 0
-4005 -4006 0
4007 4008 0
-4007 -4008 0
4009 4010 0
-4009 -4010 0
4011 4012 0
-4011 -4012 0
4013 4014 0
-4013 -4014 0
4015 4016 0
-4015 -4016 0
4017 4018 0
-4017 -4018 0
4019 4020 0
-4019 -4020 0
4021 4022 0
-4021 -4022 0
4023 4024 0
-4023 -4024 0
4025 4026 0
-4025 -4026 0
4027 4028 0
-4027 -4028 0
4029 4030 0
-4029 -4030 0
4031 4032 0
-4031 -4032 0
4033 4034 0
-4033 -4034 0
4035 4036 0
-4035 -4036 0
4037 4038 0
-4037 -4038 0
4039 4040 0
-4039 -4040 0
4041 4042 0
-4041 -4042 0
4043 4044 0
-4043 -4044 0
4045 4046 0
-4045 -4046 0
4047 4048 0
-4047 -4048 0
4049 4050 0
-4049 -4050 0
4051 4052 0
-4051 -4052 0
4053 4054 0
-4053 -4054 0
4055 4056 0
-4055 -4056 0
4057 4058 0
-4057 -4058 0
4059 4060 0
-4059 -4060 0
4061 4062 0
-4061 -4062 0
4063 4064 0
-4063 -4064 0
4065 4066 0
-4065 -4066 0
4067 4068 0
-4067 -4068 0
4069 4070 0
-4069 -4070 0
4071 4072 0
-4071 -4072 0
4073 4074 0
-4073 -4074 0
4075 4076 0
-4075 -4076 0
4077 4078 0
-4077 -4078 0
4079 4080 0
-4079 -4080 0
4081 4082 0
-4081 -4082 0
4083 4084 0
-4083 -4084 0
4085 4086 0
-4085 -4086 0
4087 4088 0
-4087 -4088 0
4089 4090 0
-4089 -4090 0
4091 4092 0
-4091 -4092 0
4093 4094 0
-4093 -4094 0
4095 4096 0
-4095 -4096 0
4097 4098 0
-4097 -4098 0
4099 4100 0
-4099 -4100 0
4101 4102 0
-4101 -4102 0
4103 4104 0
-4103 -4104 0
4105 4106 0
-4105 -4106 0
4107 4108 0
-4107 -4108 0
4109 4110 0
-4109 -4110 0
4111 4112 0
-4111 -4112 0
4113 4114 0
-4113 -4114 0
4115 4116 0
-4115 -4116 0
4117 4118 0
-4117 -4118 0
4119 4120 0
-4119 -4120 0
4121 4122 0
-4121 -4122 0
4123 4124 0
-4123 -4124 0
4125 4126 0
-4125 -4126 0
4127 4128 0
-4127 -4128 0
4129 4130 0
-4129 -4130 0
4131 4132 0
-4131 -4132 0
4133 4134 0
-4133 -4134 0
4135 4136 0
-4135 -4136 0
4137 4138 0
-4137 -4138 0
4139 4140 0
-4139 -4140 0
4141 4142 0
-4141 -4142 0
4143 4144 0
-4143 -4144 0
4145 4146 0
-4145 -4146 0
4147 4148 0
-4147 -4148 0
4149 4150 0
-4149 -4150 0
4151 4152 0
-4151 -4152 0
4153 4154 0
-4153 -4154 0
4155 4156 0
-4155 -4156 0
4157 4158 0
-4157 -4158 0
4159 4160 0
-4159 -4160 0
4161 4162 0
-4161 -4162 0
4163 4164 0
-4163 -4164 0
4165 4166 0
-4165 -4166 0
4167 4168 0
-4167 -4168 0
4169 4170 0
-4169 -4170 0
4171 4172 0
-4171 -4172 0
4173 4174 0
-4173 -4174 0
4175 4176 0
-4175 -4176 0
4177 4178 0
-4177 -4178 0
4179 4180 0
-4179 -4180 0
4181 4182 0
-4181 -4182 0
4183 4184 0
-4183 -4184 0
4185 4186 0
-4185 -4186 0
4187 4188 0
-4187 -4188 0
4189 4190 0
-4189 -4190 0
4191 4192 0
-4191 -4192 0
4193 4194 0
-4193 -4194 0
4195 4196 0
-4195 -4196 0
4197 4198 0
-4197 -4198 0
4199 4200 0
-4199 -4200 0
4201 4202 0
-4201 -4202 0
4203 4204 0
-4203 -4204 0
4205 4206 0
-4205 -4206 0
4207 4208 0
-4207 -4208 0
4209 4210 0
-4209 -4210 0
4211 4212 0
-4211 -4212 0
4213 4214 0
-4213 -4214 0
4215 4216 0
-4215 -4216 0
4217 4218 0
-4217 -4218 0
4219 4220 0
-4219 -4220 0
4221 4222 0
-4221 -4222 0
4223 4224 0
-4223 -4224 0
4225 4226 0
-4225 -4226 0
4227 4228 0
-4227 -4228 0
4229 4230 0
-4229 -4230 0
4231 4232 0
-4231 -4232 0
4233 4234 0
-4233 -4234 0
4235 4236 0
-4235 -4236 0
4237 4238 0
-4237 -4238 0
4239 4240 0
-4239 -4240 0
4241 4242 0
-4241 -4242 0
4243 4244 0
-4243 -4244 0
4245 4246 0
-4245 -4246 0
4247 4248 0
-4247 -4248 0
4249 4250 0
-4249 -4250 0
4251 4252 0
-4251 -4252 0
4253 4254 0
-4253 -4254 0
4255 4256 0
-4255 -4256 0
4257 4258 0
-4257 -4258 0
4259 4260 0
-4259 -4260 0
4261 4262 0
-4261 -4262 0
4263 4264 0
-4263 -4264 0
4265 4266 0
-4265 -4266 0
4267 4268 0
-4267 -4268 0
4269 4270 0
-4269 -4270 0
4271 4272 0
-4271 -4272 0
4273 4274 0
-4273 -4274 0
4275 4276 0
-4275 -4276 0
4277 4278 0
-4277 -4278 0
4279 4280 0
-4279 -4280 0
4281 4282 0
-4281 -4282 0
4283 4284 0
-4283 -4284 0
4285 4286 0
-4285 -4286 0
4287 4288 0
-4287 -4288 0
4289 4290 0
-4289 -4290 0
4291 4292 0
-4291 -4292 0
4293 4294 0
-4293 -4294 0
4295 4296 0
-4295 -4296 0
4297 4298 0
-4297 -4298 0
4299 4300 0
-4299 -4300 0
4301 4302 0
-4301 -4302 0
4303 4304 0
-4303 -4304 0
4305 4306 0
-4305 -4306 0
4307 4308 0
-4307 -4308 0
4309 4310 0
-4309 -4310 0
4311 4312 0
-4311 -4312 0
4313 4314 0
-4313 -4314 0
4315 4316 0
-4315 -4316 0
4317 4318 0
-4317 -4318 0
4319 4320 0
-4319 -4320 0
4321 4322 0
-4321 -4322 0
4323 4324 0
-4323 -4324 0
4325 4326 0
-4325 -4326 0
4327 4328 0
-4327 -4328 0
4329 4330 0
-4329 -4330 0
4331 4332 0
-4331 -4332 0
4333 4334 0
-4333 -4334 0
4335 4336 0
-4335 -4336 0
4337 4338 0
-4337 -4338 0
4339 4340 0
-4339 -4340 0
4341 4342 0
-4341 -4342 0
4343 4344 0
-4343 -4344 0
4345 4346 0
-4345 -4346 0
4347 4348 0
-4347 -4348 0
4349 4350 0
-4349 -4350 0
4351 4352 0
-4351 -4352 0
4353 4354 0
-4353 -4354 0
4355 4356 0
-4355 -4356 0
4357 4358 0
-4357 -4358 0
4359 4360 0
-4359 -4360 0
4361 4362 0
-4361 -4362 0
4363 4364 0
-4363 -4364 0
4365 4366 0
-4365 -4366 0
4367 4368 0
-4367 -4368 0
4369 4370 0
-4369 -4370 0
4371 4372 0
-4371 -4372 0
4373 4374 0
-4373 -4374 0
4375 4376 0
-4375 -4376 0
4377 4378 0
-4377 -4378 0
4379 4380 0
-4379 -4380 0
4381 4382 0
-4381 -4382 0
4383 4384 0
-4383 -4384 0
4385 4386 0
-4385 -4386 0
4387 4388 0
-4387 -4388 0
4389 4390 0
-4389 -4390 0
4391 4392 0
-4391 -4392 0
4393 4394 0
-4393 -4394 0
4395 4396 0
-4395 -4396 0
4397 4398 0
-4397 -4398 0
4399 4400 0
-4399 -4400 0
4401 4402 0
-4401 -4402 0
4403 4404 0
-4403 -4404 0
4405 4406 0
-4405 -4406 0
4407 4408 0
-4407 -4408 0
4409 4410 0
-4409 -4410 0
4411 4412 0
-4411 -4412 0
4413 4414 0
-4413 -4414 0
4415 4416 0
-4415 -4416 0
4417 4418 0
-4417 -4418 0
4419 4420 0
-4419 -4420 0
4421 4422 0
-4421 -4422 0
4423 4424 0
-4423 -4424 0
4425 4426 0
-4425 -4426 0
4427 4428 0
-4427 -4428 0
4429 4430 0
-4429 -4430 0
4431 4432 0
-4431 -4432 0
4433 4434 0
-4433 -4434 0
4435 4436 0
-4435 -4436 0
4437 4438 0
-4437 -4438 0
4439 4440 0
-4439 -4440 0
4441 4442 0
-4441 -4442 0
4443 4444 0
-4443 -4444 0
4445 4446 0
-4445 -4446 0
4447 4448 0
-4447 -4448 0
4449 4450 0
-4449 -4450 0
4451 4452 0
-4451 -4452 0
4453 4454 0
-4453 -4454 0
4455 4456 0
-4455 -4456 0
4457 4458 0
-4457 -4458 0
4459 4460 0
-4459 -4460 0
4461 4462 0
-4461 -4462 0
4463 4464 0
-4463 -4464 0
4465 4466 0
-4465 -4466 0
4467 4468 0
-4467 -4468 0
4469 4470 0
-4469 -4470 0
4471 4472 0
-4471 -4472 0
4473 4474 0
-4473 -4474 0
4475 4476 0
-4475 -4476 0
4477 4478 0
-4477 -4478 0
4479 4480 0
-4479 -4480 0
4481 4482 0
-4481 -4482 0
4483 4484 0
-4483 -4484 0
4485 4486 0
-4485 -4486 0
4487 4488 0
-4487 -4488 0
4489 4490 0
-4489 -4490 0
4491 4492 0
-4491 -4492 0
4493 4494 0
-4493 -4494 0
4495 4496 0
-4495 -4496 0
4497 4498 0
-4497 -4498 0
4499 4500 0
-4499 -4500 0
4501 4502 0
-4501 -4502 0
4503 4504 0
-4503 -4504 0
4505 4506 0
-4505 -4506 0
4507 4508 0
-4507 -4508 0
4509 4510 0
-4509 -4510 0
4511 4512 0
-4511 -4512 0
4513 4514 0
-4513 -4514 0
4515 4516 0
-4515 -4516 0
4517 4518 0
-4517 -4518 0
4519 4520 0
-4519 -4520 0
4521 4522 0
-4521 -4522 0
4523 4524 0
-4523 -4524 0
4525 4526 0
-4525 -4526 0
4527 4528 0
-4527 -4528 0
4529 4530 0
-4529 -4530 0
4531 4532 0
-4531 -4532 0
4533 4534 0
-4533 -4534 0
4535 4536 0
-4535 -4536 0
4537 4538 0
-4537 -4538 0
4539 4540 0
-4539 -4540 0
4541 4542 0
-4541 -4542 0
4543 4544 0
-4543 -4544 0
4545 4546 0
-4545 -4546 0
4547 4548 0
-4547 -4548 0
4549 4550 0
-4549 -4550 0
4551 4552 0
-4551 -4552 0
4553 4554 0
-4553 -4554 0
4555 4556 0
-4555 -4556 0
4557 4558 0
-4557 -4558 0
4559 4560 0
-4559 -4560 0
4561 4562 0
-4561 -4562 0
4563 4564 0
-4563 -4564 0
4565 4566 0
-4565 -4566 0
4567 4568 0
-4567 -4568 0
4569 4570 0
-4569 -4570 0
4571 4572 0
-4571 -4572 0
4573 4574 0
-4573 -4574 0
4575 4576 0
-4575 -4576 0
4577 4578 0
-4577 -4578 0
4579 4580 0
-4579 -4580 0
4581 4582 0
-4581 -4582 0
4583 4584 0
-4583 -4584 0
4585 4586 0
-4585 -4586 0
4587 4588 0
-4587 -4588 0
4589 4590 0
-4589 -4590 0
4591 4592 0
-4591 -4592 0
4593 4594 0
-4593 -4594 0
4595 4596 0
-4595 -4596 0
4597 4598 0
-4597 -4598 0
4599 4600 0
-4599 -4600 0
4601 4602 0
-4601 -4602 0
4603 4604 0
-4603 -4604 0
4605 4606 0
-4605 -4606 0
4607 4608 0
-4607 -4608 0
4609 4610 0
-4609 -4610 0
4611 4612 0
-4611 -4612 0
4613 4614 0
-4613 -4614 0
4615 4616 0
-4615 -4616 0
4617 4618 0
-4617 -4618 0
4619 4620 0
-4619 -4620 0
4621 4622 0
-4621 -4622 0
4623 4624 0
-4623 -4624 0
4625 4626 0
-4625 -4626 0
4627 4628 0
-4627 -4628 0
4629 4630 0
-4629 -4630 0
4631 4632 0
-4631 -4632 0
4633 4634 0
-4633 -4634 0
4635 4636 0
-4635 -4636 0
4637 4638 0
-4637 -4638 0
4639 4640 0
-4639 -4640 0
4641 4642 0
-4641 -4642 0
4643 4644 0
-4643 -4644 0
4645 4646 0
-4645 -4646 0
4647 4648 0
-4647 -4648 0
4649 4650 0
-4649 -4650 0
4651 4652 0
-4651 -4652 0
4653 4654 0
-4653 -4654 0
4655 4656 0
-4655 -4656 0
4657 4658 0
-4657 -4658 0
4659 4660 0
-4659 -4660 0
4661 4662 0
-4661 -4662 0
4663 4664 0
-4663 -4664 0
4665 4666 0
-4665 -4666 0
4667 4668 0
-4667 -4668 0
4669 4670 0
-4669 -4670 0
4671 4672 0
-4671 -4672 0
4673 4674 0
-4673 -4674 0
4675 4676 0
-4675 -4676 0
4677 4678 0
-4677 -4678 0
4679 4680 0
-4679 -4680 0
4681 4682 0
-4681 -4682 0
4683 4684 0
-4683 -4684 0
4685 4686 0
-4685 -4686 0
4687 4688 0
-4687 -4688 0
4689 4690 0
-4689 -4690 0
4691 4692 0
-4691 -4692 0
4693 4694 0
-4693 -4694 0
4695 4696 0
-4695 -4696 0
4697 4698 0
-4697 -4698 0
4699 4700 0
-4699 -4700 0
4701 4702 0
-4701 -4702 0
4703 4704 0
-4703 -4704 0
4705 4706 0
-4705 -4706 0
4707 4708 0
-4707 -4708 0
4709 4710 0
-4709 -4710 0
4711 4712 0
-4711 -4712 0
4713 4714 0
-4713 -4714 0
4715 4716 0
-4715 -4716 0
4717 4718 0
-4717 -4718 0
4719 4720 0
-4719 -4720 0
4721 4722 0
-4721 -4722 0
4723 4724 0
-4723 -4724 0
4725 4726 0
-4725 -4726 0
4727 4728 0
-4727 -4728 0
4729 4730 0
-4729 -4730 0
4731 4732 0
-4731 -4732 0
4733 4734 0
-4733 -4734 0
4735 4736 0
-4735 -4736 0
4737 4738 0
-4737 -4738 0
4739 4740 0
-4739 -4740 0
4741 4742 0
-4741 -4742 0
4743 4744 0
-4743 -4744 0
4745 4746 0
-4745 -4746 0
4747 4748 0
-4747 -4748 0
4749 4750 0
-4749 -4750 0
4751 4752 0
-4751 -4752 0
4753 4754 0
-4753 -4754 0
4755 4756 0
-4755 -4756 0
4757 4758 0
-4757 -4758 0
4759 4760 0
-4759 -4760 0
4761 4762 0
-4761 -4762 0
4763 4764 0
-4763 -4764 0
4765 4766 0
-4765 -4766 0
4767 4768 0
-4767 -4768 0
4769 4770 0
-4769 -4770 0
4771 4772 0
-4771 -4772 0
4773 4774 0
-4773 -4774 0
4775 4776 0
-4775 -4776 0
4777 4778 0
-4777 -4778 0
4779 4780 0
-4779 -4780 0
4781 4782 0
-4781 -4782 0
4783 4784 0
-4783 -4784 0
4785 4786 0
-4785 -4786 0
4787 4788 0
-4787 -4788 0
4789 4790 0
-4789 -4790 0
4791 4792 0
-4791 -4792 0
4793 4794 0
-4793 -4794 0
4795 4796 0
-4795 -4796 0
4797 4798 0
-4797 -4798 0
4799 4800 0
-4799 -4800 0
4801 4802 0
-4801 -4802 0
4803 4804 0
-4803 -4804 0
4805 4806 0
-4805 -4806 0
4807 4808 0
-4807 -4808 0
4809 4810 0
-4809 -4810 0
4811 4812 0
-4811 -4812 0
4813 4814 0
-4813 -4814 0
4815 4816 0
-4815 -4816 0
4817 4818 0
-4817 -4818 0
4819 4820 0
-4819 -4820 0
4821 4822 0
-4821 -4822 0
4823 4824 0
-4823 -4824 0
4825 4826 0
-4825 -4826 0
4827 4828 0
-4827 -4828 0
4829 4830 0
-4829 -4830 0
4831 4832 0
-4831 -4832 0
4833 4834 0
-4833 -4834 0
4835 4836 0
-4835 -4836 0
4837 4838 0
-4837 -4838 0
4839 4840 0
-4839 -4840 0
4841 4842 0
-4841 -4842 0
4843 4844 0
-4843 -4844 0
4845 4846 0
-4845 -4846 0
4847 4848 0
-4847 -4848 0
4849 4850 0
-4849 -4850 0
4851 4852 0
-4851 -4852 0
4853 4854 0
-4853 -4854 0
4855 4856 0
-4855 -4856 0
4857 4858 0
-4857 -4858 0
4859 4860 0
-4859 -4860 0
4861 4862 0
-4861 -4862 0
4863 4864 0
-4863 -4864 0
4865 4866 0
-4865 -4866 0
4867 4868 0
-4867 -4868 0
4869 4870 0
-4869 -4870 0
4871 4872 0
-4871 -4872 0
4873 4874 0
-4873 -4874 0
4875 4876 0
-4875 -4876 0
4877 4878 0
-4877 -4878 0
4879 4880 0
-4879 -4880 0
4881 4882 0
-4881 -4882 0
4883 4884 0
-4883 -4884 0
4885 4886 0
-4885 -4886 0
4887 4888 0
-4887 -4888 0
4889 4890 0
-4889 -4890 0
4891 4892 0
-4891 -4892 0
4893 4894 0
-4893 -4894 0
4895 4896 0
-4895 -4896 0
4897 4898 0
-4897 -4898 0
4899 4900 0
-4899 -4900 0
4901 4902 0
-4901 -4902 0
4903 4904 0
-4903 -4904 0
4905 4906 0
-4905 -4906 0
4907 4908 0
-4907 -4908 0
4909 4910 0
-4909 -4910 0
4911 4912 0
-4911 -4912 0
4913 4914 0
-4913 -4914 0
4915 4916 0
-4915 -4916 0
4917 4918 0
-4917 -4918 0
4919 4920 0
-4919 -4920 0
4921 4922 0
-4921 -4922 0
4923 4924 0
-4923 -4924 0
4925 4926 0
-4925 -4926 0
4927 4928 0
-4927 -4928 0
4929 4930 0
-4929 -4930 0
4931 4932 0
-4931 -4932 0
4933 4934 0
-4933 -4934 0
4935 4936 0
-4935 -4936 0
4937 4938 0
-4937 -4938 0
4939 4940 0
-4939 -4940 0
4941 4942 0
-4941 -4942 0
4943 4944 0
-4943 -4944 0
4945 4946 0
-4945 -4946 0
4947 4948 0
-4947 -4948 0
4949 4950 0
-4949 -4950 0
4951 4952 0
-4951 -4952 0
4953 4954 0
-4953 -4954 0
4955 4956 0
-4955 -4956 0
4957 4958 0
-4957 -4958 0
4959 4960 0
-4959 -4960 0
4961 4962 0
-4961 -4962 0
4963 4964 0
-4963 -4964 0
4965 4966 0
-4965 -4966 0
4967 4968 0
-4967 -4968 0
4969 4970 0
-4969 -4970 0
4971 4972 0
-4971 -4972 0
4973 4974 0
-4973 -4974 0
4975 4976 0
-4975 -4976 0
4977 4978 0
-4977 -4978 0
4979 4980 0
-4979 -4980 0
4981 4982 0
-4981 -4982 0
4983 4984 0
-4983 -4984 0
4985 4986 0
-4985 -4986 0
4987 4988 0
-4987 -4988 0
4989 4990 0
-4989 -4990 0
4991 4992 0
-4991 -4992 0
4993 4994 0
-4993 -4994 0
4995 4996 0
-4995 -4996 0
4997 4998 0
-4997 -4998 0
4999 5000 0
-4999 -5000 0
5001 5002 0
-5001 -5002 0
5003 5004 0
-5003 -5004 0
5005 5006 0
-5005 -5006 0
5007 5008 0
-5007 -5008 0
5009 5010 0
-5009 -5010 0
5011 5012 0
-5011 -5012 0
5013 5014 0
-5013 -5014 0
5015 5016 0
-5015 -5016 0
5017 5018 0
-5017 -5018 0
5019 5020 0
-5019 -5020 0
5021 5022 0
-5021 -5022 0
5023 5024 0
-5023 -5024 0
5025 5026 0
-5025 -5026 0
5027 5028 0
-5027 -5028 0
5029 5030 0
-5029 -5030 0
5031 5032 0
-5031 -5032 0
5033 5034 0
-5033 -5034 0
5035 5036 0
-5035 -5036 0
5037 5038 0
-5037 -5038 0
5039 5040 0
-5039 -5040 0
5041 5042 0
-5041 -5042 0
5043 5044 0
-5043 -5044 0
5045 5046 0
-5045 -5046 0
5047 5048 0
-5047 -5048 0
5049 5050 0
-5049 -5050 0
5051 5052 0
-5051 -5052 0
5053 5054 0
-5053 -5054 0
5055 5056 0
-5055 -5056 0
5057 5058 0
-5057 -5058 0
5059 5060 0
-5059 -5060 0
5061 5062 0
-5061 -5062 0
5063 5064 0
-5063 -5064 0
5065 5066 0
-5065 -5066 0
5067 5068 0
-5067 -5068 0
5069 5070 0
-5069 -5070 0
5071 5072 0
-5071 -5072 0
5073 5074 0
-5073 -5074 0
5075 5076 0
-5075 -5076 0
5077 5078 0
-5077 -5078 0
5079 5080 0
-5079 -5080 0
5081 5082 0
-5081 -5082 0
5083 5084 0
-5083 -5084 0
5085 5086 0
-5085 -5086 0
5087 5088 0
-5087 -5088 0
5089 5090 0
-5089 -5090 0
5091 5092 0
-5091 -5092 0
5093 5094 0
-5093 -5094 0
5095 5096 0
-5095 -5096 0
5097 5098 0
-5097 -5098 0
5099 5100 0
-5099 -5100 0
5101 5102 0
-5101 -5102 0
5103 5104 0
-5103 -5104 0
5105 5106 0
-5105 -5106 0
5107 5108 0
-5107 -5108 0
5109 5110 0
-5109 -5110 0
5111 5112 0
-5111 -5112 0
5113 5114 0
-5113 -5114 0
5115 5116 0
-5115 -5116 0
5117 5118 0
-5117 -5118 0
5119 5120 0
-5119 -5120 0
5121 5122 0
-5121 -5122 0
5123 5124 0
-5123 -5124 0
5125 5126 0
-5125 -5126 0
5127 5128 0
-5127 -5128 0
5129 5130 0
-5129 -5130 0
5131 5132 0
-5131 -5132 0
5133 5134 0
-5133 -5134 0
5135 5136 0
-5135 -5136 0
5137 5138 0
-5137 -5138 0
5139 5140 0
-5139 -5140 0
5141 5142 0
-5141 -5142 0
5143 5144 0
-5143 -5144 0
5145 5146 0
-5145 -5146 0
5147 5148 0
-5147 -5148 0
5149 5150 0
-5149 -5150 0
5151 5152 0
-5151 -5152 0
5153 5154 0
-5153 -5154 0
5155 5156 0
-5155 -5156 0
5157 5158 0
-5157 -5158 0
5159 5160 0
-5159 -5160 0
5161 5162 0
-5161 -5162 0
5163 5164 0
-5163 -5164 0
5165 5166 0
-5165 -5166 0
5167 5168 0
-5167 -5168 0
5169 5170 0
-5169 -5170 0
5171 5172 0
-5171 -5172 0
5173 5174 0
-5173 -5174 0
5175 5176 0
-5175 -5176 0
5177 5178 0
-5177 -5178 0
5179 5180 0
-5179 -5180 0
5181 5182 0
-5181 -5182 0
5183 5184 0
-5183 -5184 0
5185 5186 0
-5185 -5186 0
5187 5188 0
-5187 -5188 0
5189 5190 0
-5189 -5190 0
5191 5192 0
-5191 -5192 0
5193 5194 0
-5193 -5194 0
5195 5196 0
-5195 -5196 0
5197 5198 0
-5197 -5198 0
5199 5200 0
-5199 -5200 0
5201 5202 0
-5201 -5202 0
5203 5204 0
-5203 -5204 0
5205 5206 0
-5205 -5206 0
5207 5208 0
-5207 -5208 0
5209 5210 0
-5209 -5210 0
5211 5212 0
-5211 -5212 0
5213 5214 0
-5213 -5214 0
5215 5216 0
-5215 -5216 0
5217 5218 0
-5217 -5218 0
5219 5220 0
-5219 -5220 0
5221 5222 0
-5221 -5222 0
5223 5224 0
-5223 -5224 0
5225 5226 0
-5225 -5226 0
5227 5228 0
-5227 -5228 0
5229 5230 0
-5229 -5230 0
5231 5232 0
-5231 -5232 0
5233 5234 0
-5233 -5234 0
5235 5236 0
-5235 -5236 0
5237 5238 0
-5237 -5238 0
5239 5240 0
-5239 -5240 0
5241 5242 0
-5241 -5242 0
5243 5244 0
-5243 -5244 0
5245 5246 0
-5245 -5246 0
5247 5248 0
-5247 -5248 0
5249 5250 0
-5249 -5250 0
5251 5252 0
-5251 -5252 0
5253 5254 0
-5253 -5254 0
5255 5256 0
-5255 -5256 0
5257 5258 0
-5257 -5258 0
5259 5260 0
-5259 -5260 0
5261 5262 0
-5261 -5262 0
5263 5264 0
-5263 -5264 0
5265 5266 0
-5265 -5266 0
5267 5268 0
-5267 -5268 0
5269 5270 0
-5269 -5270 0
5271 5272 0
-5271 -5272 0
5273 5274 0
-5273 -5274 0
5275 5276 0
-5275 -5276 0
5277 5278 0
-5277 -5278 0
5279 5280 0
-5279 -5280 0
5281 5282 0
-5281 -5282 0
5283 5284 0
-5283 -5284 0
5285 5286 0
-5285 -5286 0
5287 5288 0
-5287 -5288 0
5289 5290 0
-5289 -5290 0
5291 5292 0
-5291 -5292 0
5293 5294 0
-5293 -5294 0
5295 5296 0
-5295 -5296 0
5297 5298 0
-5297 -5298 0
5299 5300 0
-5299 -5300 0
5301 5302 0
-5301 -5302 0
5303 5304 0
-5303 -5304 0
5305 5306 0
-5305 -5306 0
5307 5308 0
-5307 -5308 0
5309 5310 0
-5309 -5310 0
5311 5312 0
-5311 -5312 0
5313 5314 0
-5313 -5314 0
5315 5316 0
-5315 -5316 0
5317 5318 0
-5317 -5318 0
5319 5320 0
-5319 -5320 0
5321 5322 0
-5321 -5322 0
5323 5324 0
-5323 -5324 0
5325 5326 0
-5325 -5326 0
5327 5328 0
-5327 -5328 0
5329 5330 0
-5329 -5330 0
5331 5332 0
-5331 -5332 0
5333 5334 0
-5333 -5334 0
5335 5336 0
-5335 -5336 0
5337 5338 0
-5337 -5338 0
5339 5340 0
-5339 -5340 0
5341 5342 0
-5341 -5342 0
5343 5344 0
-5343 -5344 0
5345 5346 0
-5345 -5346 0
5347 5348 0
-5347 -5348 0
5349 5350 0
-5349 -5350 0
5351 5352 0
-5351 -5352 0
5353 5354 0
-5353 -5354 0
5355 5356 0
-5355 -5356 0
5357 5358 0
-5357 -5358 0
5359 5360 0
-5359 -5360 0
5361 5362 0
-5361 -5362 0
5363 5364 0
-5363 -5364 0
5365 5366 0
-5365 -5366 0
5367 5368 0
-5367 -5368 0
5369 5370 0
-5369 -5370 0
5371 5372 0
-5371 -5372 0
5373 5374 0
-5373 -5374 0
5375 5376 0
-5375 -5376 0
5377 5378 0
-5377 -5378 0
5379 5380 0
-5379 -5380 0
5381 5382 0
-5381 -5382 0
5383 5384 0
-5383 -5384 0
5385 5386 0
-5385 -5386 0
5387 5388 0
-5387 -5388 0
5389 5390 0
-5389 -5390 0
5391 5392 0
-5391 -5392 0
5393 5394 0
-5393 -5394 0
5395 5396 0
-5395 -5396 0
5397 5398 0
-5397 -5398 0
5399 5400 0
-5399 -5400 0
5401 5402 0
-5401 -5402 0
5403 5404 0
-5403 -5404 0
5405 5406 0
-5405 -5406 0
5407 5408 0
-5407 -5408 0
5409 5410 0
-5409 -5410 0
5411 5412 0
-5411 -5412 0
5413 5414 0
-5413 -5414 0
5415 5416 0
-5415 -5416 0
5417 5418 0
-5417 -5418 0
5419 5420 0
-5419 -5420 0
5421 5422 0
-5421 -5422 0
5423 5424 0
-5423 -5424 0
5425 5426 0
-5425 -5426 0
5427 5428 0
-5427 -5428 0
5429 5430 0
-5429 -5430 0
5431 5432 0
-5431 -5432 0
5433 5434 0
-5433 -5434 0
5435 5436 0
-5435 -5436 0
5437 5438 0
-5437 -5438 0
5439 5440 0
-5439 -5440 0
5441 5442 0
-5441 -5442 0
5443 5444 0
-5443 -5444 0
5445 5446 0
-5445 -5446 0
5447 5448 0
-5447 -5448 0
5449 5450 0
-5449 -5450 0
5451 5452 0
-5451 -5452 0
5453 5454 0
-5453 -5454 0
5455 5456 0
-5455 -5456 0
5457 5458 0
-5457 -5458 0
5459 5460 0
-5459 -5460 0
5461 5462 0
-5461 -5462 0
5463 5464 0
-5463 -5464 0
5465 5466 0
-5465 -5466 0
5467 5468 0
-5467 -5468 0
5469 5470 0
-5469 -5470 0
5471 5472 0
-5471 -5472 0
5473 5474 0
-5473 -5474 0
5475 5476 0
-5475 -5476 0
5477 5478 0
-5477 -5478 0
5479 5480 0
-5479 -5480 0
5481 5482 0
-5481 -5482 0
5483 5484 0
-5483 -5484 0
5485 5486 0
-5485 -5486 0
5487 5488 0
-5487 -5488 0
5489 5490 0
-5489 -5490 0
5491 5492 0
-5491 -5492 0
5493 5494 0
-5493 -5494 0
5495 5496 0
-5495 -5496 0
5497 5498 0
-5497 -5498 0
5499 5500 0
-5499 -5500 0
5501 5502 0
-5501 -5502 0
5503 5504 0
-5503 -5504 0
5505 5506 0
-5505 -5506 0
5507 5508 0
-5507 -5508 0
5509 5510 0
-5509 -5510 0
5511 5512 0
-5511 -5512 0
5513 5514 0
-5513 -5514 0
5515 5516 0
-5515 -5516 0
5517 5518 0
-5517 -5518 0
5519 5520 0
-5519 -5520 0
5521 5522 0
-5521 -5522 0
5523 5524 0
-5523 -5524 0
5525 5526 0
-5525 -5526 0
5527 5528 0
-5527 -5528 0
5529 5530 0
-5529 -5530 0
5531 5532 0
-5531 -5532 0
5533 5534 0
-5533 -5534 0
5535 5536 0
-5535 -5536 0
5537 5538 0
-5537 -5538 0
5539 5540 0
-5539 -5540 0
5541 5542 0
-5541 -5542 0
5543 5544 0
-5543 -5544 0
5545 5546 0
-5545 -5546 0
5547 5548 0
-5547 -5548 0
5549 5550 0
-5549 -5550 0
5551 5552 0
-5551 -5552 0
5553 5554 0
-5553 -5554 0
5555 5556 0
-5555 -5556 0
5557 5558 0
-5557 -5558 0
5559 5560 0
-5559 -5560 0
5561 5562 0
-5561 -5562 0
5563 5564 0
-5563 -5564 0
5565 5566 0
-5565 -5566 0
5567 5568 0
-5567 -5568 0
5569 5570 0
-5569 -5570 0
5571 5572 0
-5571 -5572 0
5573 5574 0
-5573 -5574 0
5575 5576 0
-5575 -5576 0
5577 5578 0
-5577 -5578 0
5579 5580 0
-5579 -5580 0
5581 5582 0
-5581 -5582 0
5583 5584 0
-5583 -5584 0
5585 5586 0
-5585 -5586 0
5587 5588 0
-5587 -5588 0
5589 5590 0
-5589 -5590 0
5591 5592 0
-5591 -5592 0
5593 5594 0
-5593 -5594 0
5595 5596 0
-5595 -5596 0
5597 5598 0
-5597 -5598 0
5599 5600 0
-5599 -5600 0
5601 5602 0
-5601 -5602 0
5603 5604 0
-5603 -5604 0
5605 5606 0
-5605 -5606 0
5607 5608 0
-5607 -5608 0
5609 5610 0
-5609 -5610 0
5611 5612 0
-5611 -5612 0
5613 5614 0
-5613 -5614 0
5615 5616 0
-5615 -5616 0
5617 5618 0
-5617 -5618 0
5619 5620 0
-5619 -5620 0
5621 5622 0
-5621 -5622 0
5623 5624 0
-5623 -5624 0
5625 5626 0
-5625 -5626 0
5627 5628 0
-5627 -5628 0
5629 5630 0
-5629 -5630 0
5631 5632 0
-5631 -5632 0
5633 5634 0
-5633 -5634 0
5635 5636 0
-5635 -5636 0
5637 5638 0
-5637 -5638 0
5639 5640 0
-5639 -5640 0
5641 5642 0
-5641 -5642 0
5643 5644 0
-5643 -5644 0
5645 5646 0
-5645 -5646 0
5647 5648 0
-5647 -5648 0
5649 5650 0
-5649 -5650 0
5651 5652 0
-5651 -5652 0
5653 5654 0
-5653 -5654 0
5655 5656 0
-5655 -5656 0
5657 5658 0
-5657 -5658 0
5659 5660 0
-5659 -5660 0
5661 5662 0
-5661 -5662 0
5663 5664 0
-5663 -5664 0
5665 5666 0
-5665 -5666 0
5667 5668 0
-5667 -5668 0
5669 5670 0
-5669 -5670 0
5671 5672 0
-5671 -5672 0
5673 5674 0
-5673 -5674 0
5675 5676 0
-5675 -5676 0
5677 5678 0
-5677 -5678 0
5679 5680 0
-5679 -5680 0
5681 5682 0
-5681 -5682 0
5683 5684 0
-5683 -5684 0
5685 5686 0
-5685 -5686 0
5687 5688 0
-5687 -5688 0
5689 5690 0
-5689 -5690 0
5691 5692 0
-5691 -5692 0
5693 5694 0
-5693 -5694 0
5695 5696 0
-5695 -5696 0
5697 5698 0
-5697 -5698 0
5699 5700 0
-5699 -5700 0
5701 5702 0
-5701 -5702 0
5703 5704 0
-5703 -5704 0
5705 5706 0
-5705 -5706 0
5707 5708 0
-5707 -5708 0
5709 5710 0
-5709 -5710 0
5711 5712 0
-5711 -5712 0
5713 5714 0
-5713 -5714 0
5715 5716 0
-5715 -5716 0
5717 5718 0
-5717 -5718 0
5719 5720 0
-5719 -5720 0
5721 5722 0
-5721 -5722 0
5723 5724 0
-5723 -5724 0
5725 5726 0
-5725 -5726 0
5727 5728 0
-5727 -5728 0
5729 5730 0
-5729 -5730 0
5731 5732 0
-5731 -5732 0
5733 5734 0
-5733 -5734 0
5735 5736 0
-5735 -5736 0
5737 5738 0
-5737 -5738 0
5739 5740 0
-5739 -5740 0
5741 5742 0
-5741 -5742 0
5743 5744 0
-5743 -5744 0
5745 5746 0
-5745 -5746 0
5747 5748 0
-5747 -5748 0
5749 5750 0
-5749 -5750 0
5751 5752 0
-5751 -5752 0
5753 5754 0
-5753 -5754 0
5755 5756 0
-5755 -5756 0
5757 5758 0
-5757 -5758 0
5759 5760 0
-5759 -5760 0
5761 5762 0
-5761 -5762 0
5763 5764 0
-5763 -5764 0
5765 5766 0
-5765 -5766 0
5767 5768 0
-5767 -5768 0
5769 5770 0
-5769 -5770 0
5771 5772 0
-5771 -5772 0
5773 5774 0
-5773 -5774 0
5775 5776 0
-5775 -5776 0
5777 5778 0
-5777 -5778 0
5779 5780 0
-5779 -5780 0
5781 5782 0
-5781 -5782 0
5783 5784 0
-5783 -5784 0
5785 5786 0
-5785 -5786 0
5787 5788 0
-5787 -5788 0
5789 5790 0
-5789 -5790 0
5791 5792 0
-5791 -5792 0
5793 5794 0
-5793 -5794 0
5795 5796 0
-5795 -5796 0
5797 5798 0
-5797 -5798 0
5799 5800 0
-5799 -5800 0
5801 5802 0
-5801 -5802 0
5803 5804 0
-5803 -5804 0
5805 5806 0
-5805 -5806 0
5807 5808 0
-5807 -5808 0
5809 5810 0
-5809 -5810 0
5811 5812 0
-5811 -5812 0
5813 5814 0
-5813 -5814 0
5815 5816 0
-5815 -5816 0
5817 5818 0
-5817 -5818 0
5819 5820 0
-5819 -5820 0
5821 5822 0
-5821 -5822 0
5823 5824 0
-5823 -5824 0
5825 5826 0
-5825 -5826 0
5827 5828 0
-5827 -5828 0
5829 5830 0
-5829 -5830 0
5831 5832 0
-5831 -5832 0
5833 5834 0
-5833 -5834 0
5835 5836 0
-5835 -5836 0
5837 5838 0
-5837 -5838 0
5839 5840 0
-5839 -5840 0
5841 5842 0
-5841 -5842 0
5843 5844 0
-5843 -5844 0
5845 5846 0
-5845 -5846 0
5847 5848 0
-5847 -5848 0
5849 5850 0
-5849 -5850 0
5851 5852 0
-5851 -5852 0
5853 5854 0
-5853 -5854 0
5855 5856 0
-5855 -5856 0
5857 5858 0
-5857 -5858 0
5859 5860 0
-5859 -5860 0
5861 5862 0
-5861 -5862 0
5863 5864 0
-5863 -5864 0
5865 5866 0
-5865 -5866 0
5867 5868 0
-5867 -5868 0
5869 5870 0
-5869 -5870 0
5871 5872 0
-5871 -5872 0
5873 5874 0
-5873 -5874 0
5875 5876 0
-5875 -5876 0
5877 5878 0
-5877 -5878 0
5879 5880 0
-5879 -5880 0
5881 5882 0
-5881 -5882 0
5883 5884 0
-5883 -5884 0
5885 5886 0
-5885 -5886 0
5887 5888 0
-5887 -5888 0
5889 5890 0
-5889 -5890 0
5891 5892 0
-5891 -5892 0
5893 5894 0
-5893 -5894 0
5895 5896 0
-5895 -5896 0
5897 5898 0
-5897 -5898 0
5899 5900 0
-5899 -5900 0
5901 5902 0
-5901 -5902 0
5903 5904 0
-5903 -5904 0
5905 5906 0
-5905 -5906 0
5907 5908 0
-5907 -5908 0
5909 5910 0
-5909 -5910 0
5911 5912 0
-5911 -5912 0
5913 5914 0
-5913 -5914 0
5915 5916 0
-5915 -5916 0
5917 5918 0
-5917 -5918 0
5919 5920 0
-5919 -5920 0
5921 5922 0
-5921 -5922 0
5923 5924 0
-5923 -5924 0
5925 5926 0
-5925 -5926 0
5927 5928 0
-5927 -5928 0
5929 5930 0
-5929 -5930 0
5931 5932 0
-5931 -5932 0
5933 5934 0
-5933 -5934 0
5935 5936 0
-5935 -5936 0
5937 5938 0
-5937 -5938 0
5939 5940 0
-5939 -5940 0
5941 5942 0
-5941 -5942 0
5943 5944 0
-5943 -5944 0
5945 5946 0
-5945 -5946 0
5947 5948 0
-5947 -5948 0
5949 5950 0
-5949 -5950 0
5951 5952 0
-5951 -5952 0
5953 5954 0
-5953 -5954 0
5955 5956 0
-5955 -5956 0
5957 5958 0
-5957 -5958 0
5959 5960 0
-5959 -5960 0
5961 5962 0
-5961 -5962 0
5963 5964 0
-5963 -5964 0
5965 5966 0
-5965 -5966 0
5967 5968 0
-5967 -5968 0
5969 5970 0
-5969 -5970 0
5971 5972 0
-5971 -5972 0
5973 5974 0
-5973 -5974 0
5975 5976 0
-5975 -5976 0
5977 5978 0
-5977 -5978 0
5979 5980 0
-5979 -5980 0
5981 5982 0
-5981 -5982 0
5983 5984 0
-5983 -5984 0
5985 5986 0
-5985 -5986 0
5987 5988 0
-5987 -5988 0
5989 5990 0
-5989 -5990 0
5991 5992 0
-5991 -5992 0
5993 5994 0
-5993 -5994 0
5995 5996 0
-5995 -5996 0
5997 5998 0
-5997 -5998 0
5999 6000 0
-5999 -6000 0
6001 6002 0
-6001 -6002 0
6003 6004 0
-6003 -6004 0
6005 6006 0
-6005 -6006 0
6007 6008 0
-6007 -6008 0
6009 6010 0
-6009 -6010 0
6011 6012 0
-6011 -6012 0
6013 6014 0
-6013 -6014 0
6015 6016 0
-6015 -6016 0
6017 6018 0
-6017 -6018 0
6019 6020 0
-6019 -6020 0
6021 6022 0
-6021 -6022 0
6023 6024 0
-6023 -6024 0
6025 6026 0
-6025 -6026 0
6027 6028 0
-6027 -6028 0
6029 6030 0
-6029 -6030 0
6031 6032 0
-6031 -6032 0
6033 6034 0
-6033 -6034 0
6035 6036 0
-6035 -6036 0
6037 6038 0
-6037 -6038 0
6039 6040 0
-6039 -6040 0
6041 6042 0
-6041 -6042 0
6043 6044 0
-6043 -6044 0
6045 6046 0
-6045 -6046 0
6047 6048 0
-6047 -6048 0
6049 6050 0
-6049 -6050 0
6051 6052 0
-6051 -6052 0
6053 6054 0
-6053 -6054 0
6055 6056 0
-6055 -6056 0
6057 6058 0
-6057 -6058 0
6059 6060 0
-6059 -6060 0
6061 6062 0
-6061 -6062 0
6063 6064 0
-6063 -6064 0
6065 6066 0
-6065 -6066 0
6067 6068 0
-6067 -6068 0
6069 6070 0
-6069 -6070 0
6071 6072 0
-6071 -6072 0
6073 6074 0
-6073 -6074 0
6075 6076 0
-6075 -6076 0
6077 6078 0
-6077 -6078 0
6079 6080 0
-6079 -6080 0
6081 6082 0
-6081 -6082 0
6083 6084 0
-6083 -6084 0
6085 6086 0
-6085 -6086 0
6087 6088 0
-6087 -6088 0
6089 6090 0
-6089 -6090 0
6091 6092 0
-6091 -6092 0
6093 6094 0
-6093 -6094 0
6095 6096 0
-6095 -6096 0
6097 6098 0
-6097 -6098 0
6099 6100 0
-6099 -6100 0
6101 6102 0
-6101 -6102 0
6103 6104 0
-6103 -6104 0
6105 6106 0
-6105 -6106 0
6107 6108 0
-6107 -6108 0
6109 6110 0
-6109 -6110 0
6111 6112 0
-6111 -6112 0
6113 6114 0
-6113 -6114 0
6115 6116 0
-6115 -6116 0
6117 6118 0
-6117 -6118 0
6119 6120 0
-6119 -6120 0
6121 6122 0
-6121 -6122 0
6123 6124 0
-6123 -6124 0
6125 6126 0
-6125 -6126 0
6127 6128 0
-6127 -6128 0
6129 6130 0
-6129 -6130 0
6131 6132 0
-6131 -6132 0
6133 6134 0
-6133 -6134 0
6135 6136 0
-6135 -6136 0
6137 6138 0
-6137 -6138 0
6139 6140 0
-6139 -6140 0
6141 6142 0
-6141 -6142 0
6143 6144 0
-6143 -6144 0
6145 6146 0
-6145 -6146 0
6147 6148 0
-6147 -6148 0
6149 6150 0
-6149 -6150 0
6151 6152 0
-6151 -6152 0
6153 6154 0
-6153 -6154 0
6155 6156 0
-6155 -6156 0
6157 6158 0
-6157 -6158 0
6159 6160 0
-6159 -6160 0
6161 6162 0
-6161 -6162 0
6163 6164 0
-6163 -6164 0
6165 6166 0
-6165 -6166 0
6167 6168 0
-6167 -6168 0
6169 6170 0
-6169 -6170 0
6171 6172 0
-6171 -6172 0
6173 6174 0
-6173 -6174 0
6175 6176 0
-6175 -6176 0
6177 6178 0
-6177 -6178 0
6179 6180 0
-6179 -6180 0
6181 6182 0
-6181 -6182 0
6183 6184 0
-6183 -6184 0
6185 6186 0
-6185 -6186 0
6187 6188 0
-6187 -6188 0
6189 6190 0
-6189 -6190 0
6191 6192 0
-6191 -6192 0
6193 6194 0
-6193 -6194 0
6195 6196 0
-6195 -6196 0
6197 6198 0
-6197 -6198 0
6199 6200 0
-6199 -6200 0
6201 6202 0
-6201 -6202 0
6203 6204 0
-6203 -6204 0
6205 6206 0
-6205 -6206 0
6207 6208 0
-6207 -6208 0
6209 6210 0
-6209 -6210 0
6211 6212 0
-6211 -6212 0
6213 6214 0
-6213 -6214 0
6215 6216 0
-6215 -6216 0
6217 6218 0
-6217 -6218 0
6219 6220 0
-6219 -6220 0
6221 6222 0
-6221 -6222 0
6223 6224 0
-6223 -6224 0
6225 6226 0
-6225 -6226 0
6227 6228 0
-6227 -6228 0
6229 6230 0
-6229 -6230 0
6231 6232 0
-6231 -6232 0
6233 6234 0
-6233 -6234 0
6235 6236 0
-6235 -6236 0
6237 6238 0
-6237 -6238 0
6239 6240 0
-6239 -6240 0
6241 6242 0
-6241 -6242 0
6243 6244 0
-6243 -6244 0
6245 6246 0
-6245 -6246 0
6247 6248 0
-6247 -6248 0
6249 6250 0
-6249 -6250 0
6251 6252 0
-6251 -6252 0
6253 6254 0
-6253 -6254 0
6255 6256 0
-6255 -6256 0
6257 6258 0
-6257 -6258 0
6259 6260 0
-6259 -6260 0
6261 6262 0
-6261 -6262 0
6263 6264 0
-6263 -6264 0
6265 6266 0
-6265 -6266 0
6267 6268 0
-6267 -6268 0
6269 6270 0
-6269 -6270 0
6271 6272 0
-6271 -6272 0
6273 6274 0
-6273 -6274 0
6275 6276 0
-6275 -6276 0
6277 6278 0
-6277 -6278 0
6279 6280 0
-6279 -6280 0
6281 6282 0
-6281 -6282 0
6283 6284 0
-6283 -6284 0
6285 6286 0
-6285 -6286 0
6287 6288 0
-6287 -6288 0
6289 6290 0
-6289 -6290 0
6291 6292 0
-6291 -6292 0
6293 6294 0
-6293 -6294 0
6295 6296 0
-6295 -6296 0
6297 6298 0
-6297 -6298 0
6299 6300 0
-6299 -6300 0
6301 6302 0
-6301 -6302 0
6303 6304 0
-6303 -6304 0
6305 6306 0
-6305 -6306 0
6307 6308 0
-6307 -6308 0
6309 6310 0
-6309 -6310 0
6311 6312 0
-6311 -6312 0
6313 6314 0
-6313 -6314 0
6315 6316 0
-6315 -6316 0
6317 6318 0
-6317 -6318 0
6319 6320 0
-6319 -6320 0
6321 6322 0
-6321 -6322 0
6323 6324 0
-6323 -6324 0
6325 6326 0
-6325 -6326 0
6327 6328 0
-6327 -6328 0
6329 6330 0
-6329 -6330 0
6331 6332 0
-6331 -6332 0
6333 6334 0
-6333 -6334 0
6335 6336 0
-6335 -6336 0
6337 6338 0
-6337 -6338 0
6339 6340 0
-6339 -6340 0
6341 6342 0
-6341 -6342 0
6343 6344 0
-6343 -6344 0
6345 6346 0
-6345 -6346 0
6347 6348 0
-6347 -6348 0
6349 6350 0
-6349 -6350 0
6351 6352 0
-6351 -6352 0
6353 6354 0
-6353 -6354 0
6355 6356 0
-6355 -6356 0
6357 6358 0
-6357 -6358 0
6359 6360 0
-6359 -6360 0
6361 6362 0
-6361 -6362 0
6363 6364 0
-6363 -6364 0
6365 6366 0
-6365 -6366 0
6367 6368 0
-6367 -6368 0
6369 6370 0
-6369 -6370 0
6371 6372 0
-6371 -6372 0
6373 6374 0
-6373 -6374 0
6375 6376 0
-6375 -6376 0
6377 6378 0
-6377 -6378 0
6379 6380 0
-6379 -6380 0
6381 6382 0
-6381 -6382 0
6383 6384 0
-6383 -6384 0
6385 6386 0
-6385 -6386 0
6387 6388 0
-6387 -6388 0
6389 6390 0
-6389 -6390 0
6391 6392 0
-6391 -6392 0
6393 6394 0
-6393 -6394 0
6395 6396 0
-6395 -6396 0
6397 6398 0
-6397 -6398 0
6399 6400 0
-6399 -6400 0
6401 6402 0
-6401 -6402 0
6403 6404 0
-6403 -6404 0
6405 6406 0
-6405 -6406 0
6407 6408 0
-6407 -6408 0
6409 6410 0
-6409 -6410 0
6411 6412 0
-6411 -6412 0
6413 6414 0
-6413 -6414 0
6415 6416 0
-6415 -6416 0
6417 6418 0
-6417 -6418 0
6419 6420 0
-6419 -6420 0
6421 6422 0
-6421 -6422 0
6423 6424 0
-6423 -6424 0
6425 6426 0
-6425 -6426 0
6427 6428 0
-6427 -6428 0
6429 6430 0
-6429 -6430 0
6431 6432 0
-6431 -6432 0
6433 6434 0
-6433 -6434 0
6435 6436 0
-6435 -6436 0
6437 6438 0
-6437 -6438 0
6439 6440 0
-6439 -6440 0
6441 6442 0
-6441 -6442 0
6443 6444 0
-6443 -6444 0
6445 6446 0
-6445 -6446 0
6447 6448 0
-6447 -6448 0
6449 6450 0
-6449 -6450 0
6451 6452 0
-6451 -6452 0
6453 6454 0
-6453 -6454 0
6455 6456 0
-6455 -6456 0
6457 6458 0
-6457 -6458 0
6459 6460 0
-6459 -6460 0
6461 6462 0
-6461 -6462 0
6463 6464 0
-6463 -6464 0
6465 6466 0
-6465 -6466 0
6467 6468 0
-6467 -6468 0
6469 6470 0
-6469 -6470 0
6471 6472 0
-6471 -6472 0
6473 6474 0
-6473 -6474 0
6475 6476 0
-6475 -6476 0
6477 6478 0
-6477 -6478 0
6479 6480 0
-6479 -6480 0
6481 6482 0
-6481 -6482 0
6483 6484 0
-6483 -6484 0
6485 6486 0
-6485 -6486 0
6487 6488 0
-6487 -6488 0
6489 6490 0
-6489 -6490 0
6491 6492 0
-6491 -6492 0
6493 6494 0
-6493 -6494 0
6495 6496 0
-6495 -6496 0
6497 6498 0
-6497 -6498 0
6499 6500 0
-6499 -6500 0
6501 6502 0
-6501 -6502 0
6503 6504 0
-6503 -6504 0
6505 6506 0
-6505 -6506 0
6507 6508 0
-6507 -6508 0
6509 6510 0
-6509 -6510 0
6511 6512 0
-6511 -6512 0
6513 6514 0
-6513 -6514 0
6515 6516 0
-6515 -6516 0
6517 6518 0
-6517 -6518 0
6519 6520 0
-6519 -6520 0
6521 6522 0
-6521 -6522 0
6523 6524 0
-6523 -6524 0
6525 6526 0
-6525 -6526 0
6527 6528 0
-6527 -6528 0
6529 6530 0
-6529 -6530 0
6531 6532 0
-6531 -6532 0
6533 6534 0
-6533 -6534 0
6535 6536 0
-6535 -6536 0
6537 6538 0
-6537 -6538 0
6539 6540 0
-6539 -6540 0
6541 6542 0
-6541 -6542 0
6543 6544 0
-6543 -6544 0
6545 6546 0
-6545 -6546 0
6547 6548 0
-6547 -6548 0
6549 6550 0
-6549 -6550 0
6551 6552 0
-6551 -6552 0
6553 6554 0
-6553 -6554 0
6555 6556 0
-6555 -6556 0
6557 6558 0
-6557 -6558 0
6559 6560 0
-6559 -6560 0
6561 6562 0
-6561 -6562 0
6563 6564 0
-6563 -6564 0
6565 6566 0
-6565 -6566 0
6567 6568 0
-6567 -6568 0
6569 6570 0
-6569 -6570 0
6571 6572 0
-6571 -6572 0
6573 6574 0
-6573 -6574 0
6575 6576 0
-6575 -6576 0
6577 6578 0
-6577 -6578 0
6579 6580 0
-6579 -6580 0
6581 6582 0
-6581 -6582 0
6583 6584 0
-6583 -6584 0
6585 6586 0
-6585 -6586 0
6587 6588 0
-6587 -6588 0
6589 6590 0
-6589 -6590 0
6591 6592 0
-6591 -6592 0
6593 6594 0
-6593 -6594 0
6595 6596 0
-6595 -6596 0
6597 6598 0
-6597 -6598 0
6599 6600 0
-6599 -6600 0
6601 6602 0
-6601 -6602 0
6603 6604 0
-6603 -6604 0
6605 6606 0
-6605 -6606 0
6607 6608 0
-6607 -6608 0
6609 6610 0
-6609 -6610 0
6611 6612 0
-6611 -6612 0
6613 6614 0
-6613 -6614 0
6615 6616 0
-6615 -6616 0
6617 6618 0
-6617 -6618 0
6619 6620 0
-6619 -6620 0
6621 6622 0
-6621 -6622 0
6623 6624 0
-6623 -6624 0
6625 6626 0
-6625 -6626 0
6627 6628 0
-6627 -6628 0
6629 6630 0
-6629 -6630 0
6631 6632 0
-6631 -6632 0
6633 6634 0
-6633 -6634 0
6635 6636 0
-6635 -6636 0
6637 6638 0
-6637 -6638 0
6639 6640 0
-6639 -6640 0
6641 6642 0
-6641 -6642 0
6643 6644 0
-6643 -6644 0
6645 6646 0
-6645 -6646 0
6647 6648 0
-6647 -6648 0
6649 6650 0
-6649 -6650 0
6651 6652 0
-6651 -6652 0
6653 6654 0
-6653 -6654 0
6655 6656 0
-6655 -6656 0
6657 6658 0
-6657 -6658 0
6659 6660 0
-6659 -6660 0
6661 6662 0
-6661 -6662 0
6663 6664 0
-6663 -6664 0
6665 6666 0
-6665 -6666 0
6667 6668 0
-6667 -6668 0
6669 6670 0
-6669 -6670 0
6671 6672 0
-6671 -6672 0
6673 6674 0
-6673 -6674 0
6675 6676 0
-6675 -6676 0
6677 6678 0
-6677 -6678 0
6679 6680 0
-6679 -6680 0
6681 6682 0
-6681 -6682 0
6683 6684 0
-6683 -6684 0
6685 6686 0
-6685 -6686 0
6687 6688 0
-6687 -6688 0
6689 6690 0
-6689 -6690 0
6691 6692 0
-6691 -6692 0
6693 6694 0
-6693 -6694 0
6695 6696 0
-6695 -6696 0
6697 6698 0
-6697 -6698 0
6699 6700 0
-6699 -6700 0
6701 6702 0
-6701 -6702 0
6703 6704 0
-6703 -6704 0
6705 6706 0
-6705 -6706 0
6707 6708 0
-6707 -6708 0
6709 6710 0
-6709 -6710 0
6711 6712 0
-6711 -6712 0
6713 6714 0
-6713 -6714 0
6715 6716 0
-6715 -6716 0
6717 6718 0
-6717 -6718 0
6719 6720 0
-6719 -6720 0
6721 6722 0
-6721 -6722 0
6723 6724 0
-6723 -6724 0
6725 6726 0
-6725 -6726 0
6727 6728 0
-6727 -6728 0
6729 6730 0
-6729 -6730 0
6731 6732 0
-6731 -6732 0
6733 6734 0
-6733 -6734 0
6735 6736 0
-6735 -6736 0
6737 6738 0
-6737 -6738 0
6739 6740 0
-6739 -6740 0
6741 6742 0
-6741 -6742 0
6743 6744 0
-6743 -6744 0
6745 6746 0
-6745 -6746 0
6747 6748 0
-6747 -6748 0
6749 6750 0
-6749 -6750 0
6751 6752 0
-6751 -6752 0
6753 6754 0
-6753 -6754 0
6755 6756 0
-6755 -6756 0
6757 6758 0
-6757 -6758 0
6759 6760 0
-6759 -6760 0
6761 6762 0
-6761 -6762 0
6763 6764 0
-6763 -6764 0
6765 6766 0
-6765 -6766 0
6767 6768 0
-6767 -6768 0
6769 6770 0
-6769 -6770 0
6771 6772 0
-6771 -6772 0
6773 6774 0
-6773 -6774 0
6775 6776 0
-6775 -6776 0
6777 6778 0
-6777 -6778 0
6779 6780 0
-6779 -6780 0
6781 6782 0
-6781 -6782 0
6783 6784 0
-6783 -6784 0
6785 6786 0
-6785 -6786 0
6787 6788 0
-6787 -6788 0
6789 6790 0
-6789 -6790 0
6791 6792 0
-6791 -6792 0
6793 6794 0
-6793 -6794 0
6795 6796 0
-6795 -6796 0
6797 6798 0
-6797 -6798 0
6799 6800 0
-6799 -6800 0
6801 6802 0
-6801 -6802 0
6803 6804 0
-6803 -6804 0
6805 6806 0
-6805 -6806 0
6807 6808 0
-6807 -6808 0
6809 6810 0
-6809 -6810 0
6811 6812 0
-6811 -6812 0
6813 6814 0
-6813 -6814 0
6815 6816 0
-6815 -6816 0
6817 6818 0
-6817 -6818 0
6819 6820 0
-6819 -6820 0
6821 6822 0
-6821 -6822 0
6823 6824 0
-6823 -6824 0
6825 6826 0
-6825 -6826 0
6827 6828 0
-6827 -6828 0
6829 6830 0
-6829 -6830 0
6831 6832 0
-6831 -6832 0
6833 6834 0
-6833 -6834 0
6835 6836 0
-6835 -6836 0
6837 6838 0
-6837 -6838 0
6839 6840 0
-6839 -6840 0
6841 6842 0
-6841 -6842 0
6843 6844 0
-6843 -6844 0
6845 6846 0
-6845 -6846 0
6847 6848 0
-6847 -6848 0
6849 6850 0
-6849 -6850 0
6851 6852 0
-6851 -6852 0
6853 6854 0
-6853 -6854 0
6855 6856 0
-6855 -6856 0
6857 6858 0
-6857 -6858 0
6859 6860 0
-6859 -6860 0
6861 6862 0
-6861 -6862 0
6863 6864 0
-6863 -6864 0
6865 6866 0
-6865 -6866 0
6867 6868 0
-6867 -6868 0
6869 6870 0
-6869 -6870 0
6871 6872 0
-6871 -6872 0
6873 6874 0
-6873 -6874 0
6875 6876 0
-6875 -6876 0
6877 6878 0
-6877 -6878 0
6879 6880 0
-6879 -6880 0
6881 6882 0
-6881 -6882 0
6883 6884 0
-6883 -6884 0
6885 6886 0
-6885 -6886 0
6887 6888 0
-6887 -6888 0
6889 6890 0
-6889 -6890 0
6891 6892 0
-6891 -6892 0
6893 6894 0
-6893 -6894 0
6895 6896 0
-6895 -6896 0
6897 6898 0
-6897 -6898 0
6899 6900 0
-6899 -6900 0
6901 6902 0
-6901 -6902 0
6903 6904 0
-6903 -6904 0
6905 6906 0
-6905 -6906 0
6907 6908 0
-6907 -6908 0
6909 6910 0
-6909 -6910 0
6911 6912 0
-6911 -6912 0
6913 6914 0
-6913 -6914 0
6915 6916 0
-6915 -6916 0
6917 6918 0
-6917 -6918 0
6919 6920 0
-6919 -6920 0
6921 6922 0
-6921 -6922 0
6923 6924 0
-6923 -6924 0
6925 6926 0
-6925 -6926 0
6927 6928 0
-6927 -6928 0
6929 6930 0
-6929 -6930 0
6931 6932 0
-6931 -6932 0
6933 6934 0
-6933 -6934 0
6935 6936 0
-6935 -6936 0
6937 6938 0
-6937 -6938 0
6939 6940 0
-6939 -6940 0
6941 6942 0
-6941 -6942 0
6943 6944 0
-6943 -6944 0
6945 6946 0
-6945 -6946 0
6947 6948 0
-6947 -6948 0
6949 6950 0
-6949 -6950 0
6951 6952 0
-6951 -6952 0
6953 6954 0
-6953 -6954 0
6955 6956 0
-6955 -6956 0
6957 6958 0
-6957 -6958 0
6959 6960 0
-6959 -6960 0
6961 6962 0
-6961 -6962 0
6963 6964 0
-6963 -6964 0
6965 6966 0
-6965 -6966 0
6967 6968 0
-6967 -6968 0
6969 6970 0
-6969 -6970 0
6971 6972 0
-6971 -6972 0
6973 6974 0
-6973 -6974 0
6975 6976 0
-6975 -6976 0
6977 6978 0
-6977 -6978 0
6979 6980 0
-6979 -6980 0
6981 6982 0
-6981 -6982 0
6983 6984 0
-6983 -6984 0
6985 6986 0
-6985 -6986 0
6987 6988 0
-6987 -6988 0
6989 6990 0
-6989 -6990 0
6991 6992 0
-6991 -6992 0
6993 6994 0
-6993 -6994 0
6995 6996 0
-6995 -6996 0
6997 6998 0
-6997 -6998 0
6999 7000 0
-6999 -7000 0
7001 7002 0
-7001 -7002 0
7003 7004 0
-7003 -7004 0
7005 7006 0
-7005 -7006 0
7007 7008 0
-7007 -7008 0
7009 7010 0
-7009 -7010 0
7011 7012 0
-7011 -7012 0
7013 7014 0
-7013 -7014 0
7015 7016 0
-7015 -7016 0
7017 7018 0
-7017 -7018 0
7019 7020 0
-7019 -7020 0
7021 7022 0
-7021 -7022 0
7023 7024 0
-7023 -7024 0
7025 7026 0
-7025 -7026 0
7027 7028 0
-7027 -7028 0
7029 7030 0
-7029 -7030 0
7031 7032 0
-7031 -7032 0
7033 7034 0
-7033 -7034 0
7035 7036 0
-7035 -7036 0
7037 7038 0
-7037 -7038 0
7039 7040 0
-7039 -7040 0
7041 7042 0
-7041 -7042 0
7043 7044 0
-7043 -7044 0
7045 7046 0
-7045 -7046 0
7047 7048 0
-7047 -7048 0
7049 7050 0
-7049 -7050 0
7051 7052 0
-7051 -7052 0
7053 7054 0
-7053 -7054 0
7055 7056 0
-7055 -7056 0
7057 7058 0
-7057 -7058 0
7059 7060 0
-7059 -7060 0
7061 7062 0
-7061 -7062 0
7063 7064 0
-7063 -7064 0
7065 7066 0
-7065 -7066 0
7067 7068 0
-7067 -7068 0
7069 7070 0
-7069 -7070 0
7071 7072 0
-7071 -7072 0
7073 7074 0
-7073 -7074 0
7075 7076 0
-7075 -7076 0
7077 7078 0
-7077 -7078 0
7079 7080 0
-7079 -7080 0
7081 7082 0
-7081 -7082 0
7083 7084 0
-7083 -7084 0
7085 7086 0
-7085 -7086 0
7087 7088 0
-7087 -7088 0
7089 7090 0
-7089 -7090 0
7091 7092 0
-7091 -7092 0
7093 7094 0
-7093 -7094 0
7095 7096 0
-7095 -7096 0
7097 7098 0
-7097 -7098 0
7099 7100 0
-7099 -7100 0
7101 7102 0
-7101 -7102 0
7103 7104 0
-7103 -7104 0
7105 7106 0
-7105 -7106 0
7107 7108 0
-7107 -7108 0
7109 7110 0
-7109 -7110 0
7111 7112 0
-7111 -7112 0
7113 7114 0
-7113 -7114 0
7115 7116 0
-7115 -7116 0
7117 7118 0
-7117 -7118 0
7119 7120 0
-7119 -7120 0
7121 7122 0
-7121 -7122 0
7123 7124 0
-7123 -7124 0
7125 7126 0
-7125 -7126 0
7127 7128 0
-7127 -7128 0
7129 7130 0
-7129 -7130 0
7131 7132 0
-7131 -7132 0
7133 7134 0
-7133 -7134 0
7135 7136 0
-7135 -7136 0
7137 7138 0
-7137 -7138 0
7139 7140 0
-7139 -7140 0
7141 7142 0
-7141 -7142 0
7143 7144 0
-7143 -7144 0
7145 7146 0
-7145 -7146 0
7147 7148 0
-7147 -7148 0
7149 7150 0
-7149 -7150 0
7151 7152 0
-7151 -7152 0
7153 7154 0
-7153 -7154 0
7155 7156 0
-7155 -7156 0
7157 7158 0
-7157 -7158 0
7159 7160 0
-7159 -7160 0
7161 7162 0
-7161 -7162 0
7163 7164 0
-7163 -7164 0
7165 7166 0
-7165 -7166 0
7167 7168 0
-7167 -7168 0
7169 7170 0
-7169 -7170 0
7171 7172 0
-7171 -7172 0
7173 7174 0
-7173 -7174 0
7175 7176 0
-7175 -7176 0
7177 7178 0
-7177 -7178 0
7179 7180 0
-7179 -7180 0
7181 7182 0
-7181 -7182 0
7183 7184 0
-7183 -7184 0
7185 7186 0
-7185 -7186 0
7187 7188 0
-7187 -7188 0
7189 7190 0
-7189 -7190 0
7191 7192 0
-7191 -7192 0
7193 7194 0
-7193 -7194 0
7195 7196 0
-7195 -7196 0
7197 7198 0
-7197 -7198 0
7199 7200 0
-7199 -7200 0
7201 7202 0
-7201 -7202 0
7203 7204 0
-7203 -7204 0
7205 7206 0
-7205 -7206 0
7207 7208 0
-7207 -7208 0
7209 7210 0
-7209 -7210 0
7211 7212 0
-7211 -7212 0
7213 7214 0
-7213 -7214 0
7215 7216 0
-7215 -7216 0
7217 7218 0
-7217 -7218 0
7219 7220 0
-7219 -7220 0
7221 7222 0
-7221 -7222 0
7223 7224 0
-7223 -7224 0
7225 7226 0
-7225 -7226 0
7227 7228 0
-7227 -7228 0
7229 7230 0
-7229 -7230 0
7231 7232 0
-7231 -7232 0
7233 7234 0
-7233 -7234 0
7235 7236 0
-7235 -7236 0
7237 7238 0
-7237 -7238 0
7239 7240 0
-7239 -7240 0
7241 7242 0
-7241 -7242 0
7243 7244 0
-7243 -7244 0
7245 7246 0
-7245 -7246 0
7247 7248 0
-7247 -7248 0
7249 7250 0
-7249 -7250 0
7251 7252 0
-7251 -7252 0
7253 7254 0
-7253 -7254 0
7255 7256 0
-7255 -7256 0
7257 7258 0
-7257 -7258 0
7259 7260 0
-7259 -7260 0
7261 7262 0
-7261 -7262 0
7263 7264 0
-7263 -7264 0
7265 7266 0
-7265 -7266 0
7267 7268 0
-7267 -7268 0
7269 7270 0
-7269 -7270 0
7271 7272 0
-7271 -7272 0
7273 7274 0
-7273 -7274 0
7275 7276 0
-7275 -7276 0
7277 7278 0
-7277 -7278 0
7279 7280 0
-7279 -7280 0
7281 7282 0
-7281 -7282 0
7283 7284 0
-7283 -7284 0
7285 7286 0
-7285 -7286 0
7287 7288 0
-7287 -7288 0
7289 7290 0
-7289 -7290 0
7291 7292 0
-7291 -7292 0
7293 7294 0
-7293 -7294 0
7295 7296 0
-7295 -7296 0
7297 7298 0
-7297 -7298 0
7299 7300 0
-7299 -7300 0
7301 7302 0
-7301 -7302 0
7303 7304 0
-7303 -7304 0
7305 7306 0
-7305 -7306 0
7307 7308 0
-7307 -7308 0
7309 7310 0
-7309 -7310 0
7311 7312 0
-7311 -7312 0
7313 7314 0
-7313 -7314 0
7315 7316 0
-7315 -7316 0
7317 7318 0
-7317 -7318 0
7319 7320 0
-7319 -7320 0
7321 7322 0
-7321 -7322 0
7323 7324 0
-7323 -7324 0
7325 7326 0
-7325 -7326 0
7327 7328 0
-7327 -7328 0
7329 7330 0
-7329 -7330 0
7331 7332 0
-7331 -7332 0
7333 7334 0
-7333 -7334 0
7335 7336 0
-7335 -7336 0
7337 7338 0
-7337 -7338 0
7339 7340 0
-7339 -7340 0
7341 7342 0
-7341 -7342 0
7343 7344 0
-7343 -7344 0
7345 7346 0
-7345 -7346 0
7347 7348 0
-7347 -7348 0
7349 7350 0
-7349 -7350 0
7351 7352 0
-7351 -7352 0
7353 7354 0
-7353 -7354 0
7355 7356 0
-7355 -7356 0
7357 7358 0
-7357 -7358 0
7359 7360 0
-7359 -7360 0
7361 7362 0
-7361 -7362 0
7363 7364 0
-7363 -7364 0
7365 7366 0
-7365 -7366 0
7367 7368 0
-7367 -7368 0
7369 7370 0
-7369 -7370 0
7371 7372 0
-7371 -7372 0
7373 7374 0
-7373 -7374 0
7375 7376 0
-7375 -7376 0
7377 7378 0
-7377 -7378 0
7379 7380 0
-7379 -7380 0
7381 7382 0
-7381 -7382 0
7383 7384 0
-7383 -7384 0
7385 7386 0
-7385 -7386 0
7387 7388 0
-7387 -7388 0
7389 7390 0
-7389 -7390 0
7391 7392 0
-7391 -7392 0
7393 7394 0
-7393 -7394 0
7395 7396 0
-7395 -7396 0
7397 7398 0
-7397 -7398 0
7399 7400 0
-7399 -7400 0
7401 7402 0
-7401 -7402 0
7403 7404 0
-7403 -7404 0
7405 7406 0
-7405 -7406 0
7407 7408 0
-7407 -7408 0
7409 7410 0
-7409 -7410 0
7411 7412 0
-7411 -7412 0
7413 7414 0
-7413 -7414 0
7415 7416 0
-7415 -7416 0
7417 7418 0
-7417 -7418 0
7419 7420 0
-7419 -7420 0
7421 7422 0
-7421 -7422 0
7423 7424 0
-7423 -7424 0
7425 7426 0
-7425 -7426 0
7427 7428 0
-7427 -7428 0
7429 7430 0
-7429 -7430 0
7431 7432 0
-7431 -7432 0
7433 7434 0
-7433 -7434 0
7435 7436 0
-7435 -7436 0
7437 7438 0
-7437 -7438 0
7439 7440 0
-7439 -7440 0
7441 7442 0
-7441 -7442 0
7443 7444 0
-7443 -7444 0
7445 7446 0
-7445 -7446 0
7447 7448 0
-7447 -7448 0
7449 7450 0
-7449 -7450 0
7451 7452 0
-7451 -7452 0
7453 7454 0
-7453 -7454 0
7455 7456 0
-7455 -7456 0
7457 7458 0
-7457 -7458 0
7459 7460 0
-7459 -7460 0
7461 7462 0
-7461 -7462 0
7463 7464 0
-7463 -7464 0
7465 7466 0
-7465 -7466 0
7467 7468 0
-7467 -7468 0
7469 7470 0
-7469 -7470 0
7471 7472 0
-7471 -7472 0
7473 7474 0
-7473 -7474 0
7475 7476 0
-7475 -7476 0
7477 7478 0
-7477 -7478 0
7479 7480 0
-7479 -7480 0
7481 7482 0
-7481 -7482 0
7483 7484 0
-7483 -7484 0
7485 7486 0
-7485 -7486 0
7487 7488 0
-7487 -7488 0
7489 7490 0
-7489 -7490 0
7491 7492 0
-7491 -7492 0
7493 7494 0
-7493 -7494 0
7495 7496 0
-7495 -7496 0
7497 7498 0
-7497 -7498 0
7499 7500 0
-7499 -7500 0
7501 7502 0
-7501 -7502 0
7503 7504 0
-7503 -7504 0
