p cnf 1360 2801
1 3 5 0
1 3 7 0
1 5 7 0
3 5 7 0
1 4 6 8 0
3 2 6 8 0
5 2 4 8 0
7 2 4 6 0
1 9 11 0
1 9 13 0
1 11 13 0
9 11 13 0
1 10 12 14 0
9 2 12 14 0
11 2 10 14 0
13 2 10 12 0
3 9 15 0
3 9 17 0
3 15 17 0
9 15 17 0
3 10 16 18 0
9 4 16 18 0
15 4 10 18 0
17 4 10 16 0
5 11 15 0
5 11 19 0
5 15 19 0
11 15 19 0
5 12 16 20 0
11 6 16 20 0
15 6 12 20 0
19 6 12 16 0
7 13 17 0
7 13 19 0
7 17 19 0
13 17 19 0
7 14 18 20 0
13 8 18 20 0
17 8 14 20 0
19 8 14 18 0
1 21 23 0
1 21 25 0
1 23 25 0
21 23 25 0
1 22 24 26 0
21 2 24 26 0
23 2 22 26 0
25 2 22 24 0
3 21 27 0
3 21 29 0
3 27 29 0
21 27 29 0
3 22 28 30 0
21 4 28 30 0
27 4 22 30 0
29 4 22 28 0
5 23 27 0
5 23 31 0
5 27 31 0
23 27 31 0
5 24 28 32 0
23 6 28 32 0
27 6 24 32 0
31 6 24 28 0
7 25 29 0
7 25 31 0
7 29 31 0
25 29 31 0
7 26 30 32 0
25 8 30 32 0
29 8 26 32 0
31 8 26 30 0
9 21 33 0
9 21 35 0
9 33 35 0
21 33 35 0
9 22 34 36 0
21 10 34 36 0
33 10 22 36 0
35 10 22 34 0
11 23 33 0
11 23 37 0
11 33 37 0
23 33 37 0
11 24 34 38 0
23 12 34 38 0
33 12 24 38 0
37 12 24 34 0
13 25 35 0
13 25 37 0
13 35 37 0
25 35 37 0
13 26 36 38 0
25 14 36 38 0
35 14 26 38 0
37 14 26 36 0
15 27 33 0
15 27 39 0
15 33 39 0
27 33 39 0
15 28 34 40 0
27 16 34 40 0
33 16 28 40 0
39 16 28 34 0
17 29 35 0
17 29 39 0
17 35 39 0
29 35 39 0
17 30 36 40 0
29 18 36 40 0
35 18 30 40 0
39 18 30 36 0
19 31 37 0
19 31 39 0
19 37 39 0
31 37 39 0
19 32 38 40 0
31 20 38 40 0
37 20 32 40 0
39 20 32 38 0
1 42 0
3 50 0
5 58 0
7 66 0
9 74 0
11 82 0
13 90 0
15 98 0
17 106 0
19 114 0
41 50 0
43 52 0
45 54 0
47 56 0
49 58 0
51 60 0
53 62 0
55 64 0
57 66 0
59 68 0
61 70 0
63 72 0
65 74 0
67 76 0
69 78 0
71 80 0
73 82 0
75 84 0
77 86 0
79 88 0
81 90 0
83 92 0
85 94 0
87 96 0
89 98 0
91 100 0
93 102 0
95 104 0
97 106 0
99 108 0
101 110 0
103 112 0
105 114 0
107 116 0
109 118 0
111 120 0
3 41 52 0
3 43 54 0
3 45 56 0
5 49 60 0
5 51 62 0
5 53 64 0
7 57 68 0
7 59 70 0
7 61 72 0
9 65 76 0
9 67 78 0
9 69 80 0
11 73 84 0
11 75 86 0
11 77 88 0
13 81 92 0
13 83 94 0
13 85 96 0
15 89 100 0
15 91 102 0
15 93 104 0
17 97 108 0
17 99 110 0
17 101 112 0
19 105 116 0
19 107 118 0
19 109 120 0
3 47 0
5 55 0
7 63 0
9 71 0
11 79 0
13 87 0
15 95 0
17 103 0
19 111 0
122 2 0
121 1 0
124 4 0
123 3 0
126 6 0
125 5 0
128 8 0
127 7 0
130 10 0
129 9 0
132 12 0
131 11 0
134 14 0
133 13 0
136 16 0
135 15 0
138 18 0
137 17 0
140 20 0
139 19 0
121 142 0
123 154 0
125 166 0
127 178 0
129 190 0
131 202 0
133 214 0
135 226 0
137 238 0
139 250 0
141 154 0
143 156 0
145 158 0
147 160 0
149 162 0
151 164 0
153 166 0
155 168 0
157 170 0
159 172 0
161 174 0
163 176 0
165 178 0
167 180 0
169 182 0
171 184 0
173 186 0
175 188 0
177 190 0
179 192 0
181 194 0
183 196 0
185 198 0
187 200 0
189 202 0
191 204 0
193 206 0
195 208 0
197 210 0
199 212 0
201 214 0
203 216 0
205 218 0
207 220 0
209 222 0
211 224 0
213 226 0
215 228 0
217 230 0
219 232 0
221 234 0
223 236 0
225 238 0
227 240 0
229 242 0
231 244 0
233 246 0
235 248 0
237 250 0
239 252 0
241 254 0
243 256 0
245 258 0
247 260 0
123 141 156 0
123 143 158 0
123 145 160 0
123 147 162 0
123 149 164 0
125 153 168 0
125 155 170 0
125 157 172 0
125 159 174 0
125 161 176 0
127 165 180 0
127 167 182 0
127 169 184 0
127 171 186 0
127 173 188 0
129 177 192 0
129 179 194 0
129 181 196 0
129 183 198 0
129 185 200 0
131 189 204 0
131 191 206 0
131 193 208 0
131 195 210 0
131 197 212 0
133 201 216 0
133 203 218 0
133 205 220 0
133 207 222 0
133 209 224 0
135 213 228 0
135 215 230 0
135 217 232 0
135 219 234 0
135 221 236 0
137 225 240 0
137 227 242 0
137 229 244 0
137 231 246 0
137 233 248 0
139 237 252 0
139 239 254 0
139 241 256 0
139 243 258 0
139 245 260 0
123 151 0
125 163 0
127 175 0
129 187 0
131 199 0
133 211 0
135 223 0
137 235 0
139 247 0
1 262 0
3 270 0
5 278 0
7 286 0
21 294 0
23 302 0
25 310 0
27 318 0
29 326 0
31 334 0
261 270 0
263 272 0
265 274 0
267 276 0
269 278 0
271 280 0
273 282 0
275 284 0
277 286 0
279 288 0
281 290 0
283 292 0
285 294 0
287 296 0
289 298 0
291 300 0
293 302 0
295 304 0
297 306 0
299 308 0
301 310 0
303 312 0
305 314 0
307 316 0
309 318 0
311 320 0
313 322 0
315 324 0
317 326 0
319 328 0
321 330 0
323 332 0
325 334 0
327 336 0
329 338 0
331 340 0
3 261 272 0
3 263 274 0
3 265 276 0
5 269 280 0
5 271 282 0
5 273 284 0
7 277 288 0
7 279 290 0
7 281 292 0
21 285 296 0
21 287 298 0
21 289 300 0
23 293 304 0
23 295 306 0
23 297 308 0
25 301 312 0
25 303 314 0
25 305 316 0
27 309 320 0
27 311 322 0
27 313 324 0
29 317 328 0
29 319 330 0
29 321 332 0
31 325 336 0
31 327 338 0
31 329 340 0
3 267 0
5 275 0
7 283 0
21 291 0
23 299 0
25 307 0
27 315 0
29 323 0
31 331 0
342 2 0
341 1 0
344 4 0
343 3 0
346 6 0
345 5 0
348 8 0
347 7 0
350 22 0
349 21 0
352 24 0
351 23 0
354 26 0
353 25 0
356 28 0
355 27 0
358 30 0
357 29 0
360 32 0
359 31 0
341 362 0
343 374 0
345 386 0
347 398 0
349 410 0
351 422 0
353 434 0
355 446 0
357 458 0
359 470 0
361 374 0
363 376 0
365 378 0
367 380 0
369 382 0
371 384 0
373 386 0
375 388 0
377 390 0
379 392 0
381 394 0
383 396 0
385 398 0
387 400 0
389 402 0
391 404 0
393 406 0
395 408 0
397 410 0
399 412 0
401 414 0
403 416 0
405 418 0
407 420 0
409 422 0
411 424 0
413 426 0
415 428 0
417 430 0
419 432 0
421 434 0
423 436 0
425 438 0
427 440 0
429 442 0
431 444 0
433 446 0
435 448 0
437 450 0
439 452 0
441 454 0
443 456 0
445 458 0
447 460 0
449 462 0
451 464 0
453 466 0
455 468 0
457 470 0
459 472 0
461 474 0
463 476 0
465 478 0
467 480 0
343 361 376 0
343 363 378 0
343 365 380 0
343 367 382 0
343 369 384 0
345 373 388 0
345 375 390 0
345 377 392 0
345 379 394 0
345 381 396 0
347 385 400 0
347 387 402 0
347 389 404 0
347 391 406 0
347 393 408 0
349 397 412 0
349 399 414 0
349 401 416 0
349 403 418 0
349 405 420 0
351 409 424 0
351 411 426 0
351 413 428 0
351 415 430 0
351 417 432 0
353 421 436 0
353 423 438 0
353 425 440 0
353 427 442 0
353 429 444 0
355 433 448 0
355 435 450 0
355 437 452 0
355 439 454 0
355 441 456 0
357 445 460 0
357 447 462 0
357 449 464 0
357 451 466 0
357 453 468 0
359 457 472 0
359 459 474 0
359 461 476 0
359 463 478 0
359 465 480 0
343 371 0
345 383 0
347 395 0
349 407 0
351 419 0
353 431 0
355 443 0
357 455 0
359 467 0
1 482 0
9 490 0
11 498 0
13 506 0
21 514 0
23 522 0
25 530 0
33 538 0
35 546 0
37 554 0
481 490 0
483 492 0
485 494 0
487 496 0
489 498 0
491 500 0
493 502 0
495 504 0
497 506 0
499 508 0
501 510 0
503 512 0
505 514 0
507 516 0
509 518 0
511 520 0
513 522 0
515 524 0
517 526 0
519 528 0
521 530 0
523 532 0
525 534 0
527 536 0
529 538 0
531 540 0
533 542 0
535 544 0
537 546 0
539 548 0
541 550 0
543 552 0
545 554 0
547 556 0
549 558 0
551 560 0
9 481 492 0
9 483 494 0
9 485 496 0
11 489 500 0
11 491 502 0
11 493 504 0
13 497 508 0
13 499 510 0
13 501 512 0
21 505 516 0
21 507 518 0
21 509 520 0
23 513 524 0
23 515 526 0
23 517 528 0
25 521 532 0
25 523 534 0
25 525 536 0
33 529 540 0
33 531 542 0
33 533 544 0
35 537 548 0
35 539 550 0
35 541 552 0
37 545 556 0
37 547 558 0
37 549 560 0
9 487 0
11 495 0
13 503 0
21 511 0
23 519 0
25 527 0
33 535 0
35 543 0
37 551 0
562 2 0
561 1 0
564 10 0
563 9 0
566 12 0
565 11 0
568 14 0
567 13 0
570 22 0
569 21 0
572 24 0
571 23 0
574 26 0
573 25 0
576 34 0
575 33 0
578 36 0
577 35 0
580 38 0
579 37 0
561 582 0
563 594 0
565 606 0
567 618 0
569 630 0
571 642 0
573 654 0
575 666 0
577 678 0
579 690 0
581 594 0
583 596 0
585 598 0
587 600 0
589 602 0
591 604 0
593 606 0
595 608 0
597 610 0
599 612 0
601 614 0
603 616 0
605 618 0
607 620 0
609 622 0
611 624 0
613 626 0
615 628 0
617 630 0
619 632 0
621 634 0
623 636 0
625 638 0
627 640 0
629 642 0
631 644 0
633 646 0
635 648 0
637 650 0
639 652 0
641 654 0
643 656 0
645 658 0
647 660 0
649 662 0
651 664 0
653 666 0
655 668 0
657 670 0
659 672 0
661 674 0
663 676 0
665 678 0
667 680 0
669 682 0
671 684 0
673 686 0
675 688 0
677 690 0
679 692 0
681 694 0
683 696 0
685 698 0
687 700 0
563 581 596 0
563 583 598 0
563 585 600 0
563 587 602 0
563 589 604 0
565 593 608 0
565 595 610 0
565 597 612 0
565 599 614 0
565 601 616 0
567 605 620 0
567 607 622 0
567 609 624 0
567 611 626 0
567 613 628 0
569 617 632 0
569 619 634 0
569 621 636 0
569 623 638 0
569 625 640 0
571 629 644 0
571 631 646 0
571 633 648 0
571 635 650 0
571 637 652 0
573 641 656 0
573 643 658 0
573 645 660 0
573 647 662 0
573 649 664 0
575 653 668 0
575 655 670 0
575 657 672 0
575 659 674 0
575 661 676 0
577 665 680 0
577 667 682 0
577 669 684 0
577 671 686 0
577 673 688 0
579 677 692 0
579 679 694 0
579 681 696 0
579 683 698 0
579 685 700 0
563 591 0
565 603 0
567 615 0
569 627 0
571 639 0
573 651 0
575 663 0
577 675 0
579 687 0
3 702 0
9 710 0
15 718 0
17 726 0
21 734 0
27 742 0
29 750 0
33 758 0
35 766 0
39 774 0
701 710 0
703 712 0
705 714 0
707 716 0
709 718 0
711 720 0
713 722 0
715 724 0
717 726 0
719 728 0
721 730 0
723 732 0
725 734 0
727 736 0
729 738 0
731 740 0
733 742 0
735 744 0
737 746 0
739 748 0
741 750 0
743 752 0
745 754 0
747 756 0
749 758 0
751 760 0
753 762 0
755 764 0
757 766 0
759 768 0
761 770 0
763 772 0
765 774 0
767 776 0
769 778 0
771 780 0
9 701 712 0
9 703 714 0
9 705 716 0
15 709 720 0
15 711 722 0
15 713 724 0
17 717 728 0
17 719 730 0
17 721 732 0
21 725 736 0
21 727 738 0
21 729 740 0
27 733 744 0
27 735 746 0
27 737 748 0
29 741 752 0
29 743 754 0
29 745 756 0
33 749 760 0
33 751 762 0
33 753 764 0
35 757 768 0
35 759 770 0
35 761 772 0
39 765 776 0
39 767 778 0
39 769 780 0
9 707 0
15 715 0
17 723 0
21 731 0
27 739 0
29 747 0
33 755 0
35 763 0
39 771 0
782 4 0
781 3 0
784 10 0
783 9 0
786 16 0
785 15 0
788 18 0
787 17 0
790 22 0
789 21 0
792 28 0
791 27 0
794 30 0
793 29 0
796 34 0
795 33 0
798 36 0
797 35 0
800 40 0
799 39 0
781 802 0
783 814 0
785 826 0
787 838 0
789 850 0
791 862 0
793 874 0
795 886 0
797 898 0
799 910 0
801 814 0
803 816 0
805 818 0
807 820 0
809 822 0
811 824 0
813 826 0
815 828 0
817 830 0
819 832 0
821 834 0
823 836 0
825 838 0
827 840 0
829 842 0
831 844 0
833 846 0
835 848 0
837 850 0
839 852 0
841 854 0
843 856 0
845 858 0
847 860 0
849 862 0
851 864 0
853 866 0
855 868 0
857 870 0
859 872 0
861 874 0
863 876 0
865 878 0
867 880 0
869 882 0
871 884 0
873 886 0
875 888 0
877 890 0
879 892 0
881 894 0
883 896 0
885 898 0
887 900 0
889 902 0
891 904 0
893 906 0
895 908 0
897 910 0
899 912 0
901 914 0
903 916 0
905 918 0
907 920 0
783 801 816 0
783 803 818 0
783 805 820 0
783 807 822 0
783 809 824 0
785 813 828 0
785 815 830 0
785 817 832 0
785 819 834 0
785 821 836 0
787 825 840 0
787 827 842 0
787 829 844 0
787 831 846 0
787 833 848 0
789 837 852 0
789 839 854 0
789 841 856 0
789 843 858 0
789 845 860 0
791 849 864 0
791 851 866 0
791 853 868 0
791 855 870 0
791 857 872 0
793 861 876 0
793 863 878 0
793 865 880 0
793 867 882 0
793 869 884 0
795 873 888 0
795 875 890 0
795 877 892 0
795 879 894 0
795 881 896 0
797 885 900 0
797 887 902 0
797 889 904 0
797 891 906 0
797 893 908 0
799 897 912 0
799 899 914 0
799 901 916 0
799 903 918 0
799 905 920 0
783 811 0
785 823 0
787 835 0
789 847 0
791 859 0
793 871 0
795 883 0
797 895 0
799 907 0
5 922 0
11 930 0
15 938 0
19 946 0
23 954 0
27 962 0
31 970 0
33 978 0
37 986 0
39 994 0
921 930 0
923 932 0
925 934 0
927 936 0
929 938 0
931 940 0
933 942 0
935 944 0
937 946 0
939 948 0
941 950 0
943 952 0
945 954 0
947 956 0
949 958 0
951 960 0
953 962 0
955 964 0
957 966 0
959 968 0
961 970 0
963 972 0
965 974 0
967 976 0
969 978 0
971 980 0
973 982 0
975 984 0
977 986 0
979 988 0
981 990 0
983 992 0
985 994 0
987 996 0
989 998 0
991 1000 0
11 921 932 0
11 923 934 0
11 925 936 0
15 929 940 0
15 931 942 0
15 933 944 0
19 937 948 0
19 939 950 0
19 941 952 0
23 945 956 0
23 947 958 0
23 949 960 0
27 953 964 0
27 955 966 0
27 957 968 0
31 961 972 0
31 963 974 0
31 965 976 0
33 969 980 0
33 971 982 0
33 973 984 0
37 977 988 0
37 979 990 0
37 981 992 0
39 985 996 0
39 987 998 0
39 989 1000 0
11 927 0
15 935 0
19 943 0
23 951 0
27 959 0
31 967 0
33 975 0
37 983 0
39 991 0
1002 6 0
1001 5 0
1004 12 0
1003 11 0
1006 16 0
1005 15 0
1008 20 0
1007 19 0
1010 24 0
1009 23 0
1012 28 0
1011 27 0
1014 32 0
1013 31 0
1016 34 0
1015 33 0
1018 38 0
1017 37 0
1020 40 0
1019 39 0
1001 1022 0
1003 1034 0
1005 1046 0
1007 1058 0
1009 1070 0
1011 1082 0
1013 1094 0
1015 1106 0
1017 1118 0
1019 1130 0
1021 1034 0
1023 1036 0
1025 1038 0
1027 1040 0
1029 1042 0
1031 1044 0
1033 1046 0
1035 1048 0
1037 1050 0
1039 1052 0
1041 1054 0
1043 1056 0
1045 1058 0
1047 1060 0
1049 1062 0
1051 1064 0
1053 1066 0
1055 1068 0
1057 1070 0
1059 1072 0
1061 1074 0
1063 1076 0
1065 1078 0
1067 1080 0
1069 1082 0
1071 1084 0
1073 1086 0
1075 1088 0
1077 1090 0
1079 1092 0
1081 1094 0
1083 1096 0
1085 1098 0
1087 1100 0
1089 1102 0
1091 1104 0
1093 1106 0
1095 1108 0
1097 1110 0
1099 1112 0
1101 1114 0
1103 1116 0
1105 1118 0
1107 1120 0
1109 1122 0
1111 1124 0
1113 1126 0
1115 1128 0
1117 1130 0
1119 1132 0
1121 1134 0
1123 1136 0
1125 1138 0
1127 1140 0
1003 1021 1036 0
1003 1023 1038 0
1003 1025 1040 0
1003 1027 1042 0
1003 1029 1044 0
1005 1033 1048 0
1005 1035 1050 0
1005 1037 1052 0
1005 1039 1054 0
1005 1041 1056 0
1007 1045 1060 0
1007 1047 1062 0
1007 1049 1064 0
1007 1051 1066 0
1007 1053 1068 0
1009 1057 1072 0
1009 1059 1074 0
1009 1061 1076 0
1009 1063 1078 0
1009 1065 1080 0
1011 1069 1084 0
1011 1071 1086 0
1011 1073 1088 0
1011 1075 1090 0
1011 1077 1092 0
1013 1081 1096 0
1013 1083 1098 0
1013 1085 1100 0
1013 1087 1102 0
1013 1089 1104 0
1015 1093 1108 0
1015 1095 1110 0
1015 1097 1112 0
1015 1099 1114 0
1015 1101 1116 0
1017 1105 1120 0
1017 1107 1122 0
1017 1109 1124 0
1017 1111 1126 0
1017 1113 1128 0
1019 1117 1132 0
1019 1119 1134 0
1019 1121 1136 0
1019 1123 1138 0
1019 1125 1140 0
1003 1031 0
1005 1043 0
1007 1055 0
1009 1067 0
1011 1079 0
1013 1091 0
1015 1103 0
1017 1115 0
1019 1127 0
7 1142 0
13 1150 0
17 1158 0
19 1166 0
25 1174 0
29 1182 0
31 1190 0
35 1198 0
37 1206 0
39 1214 0
1141 1150 0
1143 1152 0
1145 1154 0
1147 1156 0
1149 1158 0
1151 1160 0
1153 1162 0
1155 1164 0
1157 1166 0
1159 1168 0
1161 1170 0
1163 1172 0
1165 1174 0
1167 1176 0
1169 1178 0
1171 1180 0
1173 1182 0
1175 1184 0
1177 1186 0
1179 1188 0
1181 1190 0
1183 1192 0
1185 1194 0
1187 1196 0
1189 1198 0
1191 1200 0
1193 1202 0
1195 1204 0
1197 1206 0
1199 1208 0
1201 1210 0
1203 1212 0
1205 1214 0
1207 1216 0
1209 1218 0
1211 1220 0
13 1141 1152 0
13 1143 1154 0
13 1145 1156 0
17 1149 1160 0
17 1151 1162 0
17 1153 1164 0
19 1157 1168 0
19 1159 1170 0
19 1161 1172 0
25 1165 1176 0
25 1167 1178 0
25 1169 1180 0
29 1173 1184 0
29 1175 1186 0
29 1177 1188 0
31 1181 1192 0
31 1183 1194 0
31 1185 1196 0
35 1189 1200 0
35 1191 1202 0
35 1193 1204 0
37 1197 1208 0
37 1199 1210 0
37 1201 1212 0
39 1205 1216 0
39 1207 1218 0
39 1209 1220 0
13 1147 0
17 1155 0
19 1163 0
25 1171 0
29 1179 0
31 1187 0
35 1195 0
37 1203 0
39 1211 0
1222 8 0
1221 7 0
1224 14 0
1223 13 0
1226 18 0
1225 17 0
1228 20 0
1227 19 0
1230 26 0
1229 25 0
1232 30 0
1231 29 0
1234 32 0
1233 31 0
1236 36 0
1235 35 0
1238 38 0
1237 37 0
1240 40 0
1239 39 0
1221 1242 0
1223 1254 0
1225 1266 0
1227 1278 0
1229 1290 0
1231 1302 0
1233 1314 0
1235 1326 0
1237 1338 0
1239 1350 0
1241 1254 0
1243 1256 0
1245 1258 0
1247 1260 0
1249 1262 0
1251 1264 0
1253 1266 0
1255 1268 0
1257 1270 0
1259 1272 0
1261 1274 0
1263 1276 0
1265 1278 0
1267 1280 0
1269 1282 0
1271 1284 0
1273 1286 0
1275 1288 0
1277 1290 0
1279 1292 0
1281 1294 0
1283 1296 0
1285 1298 0
1287 1300 0
1289 1302 0
1291 1304 0
1293 1306 0
1295 1308 0
1297 1310 0
1299 1312 0
1301 1314 0
1303 1316 0
1305 1318 0
1307 1320 0
1309 1322 0
1311 1324 0
1313 1326 0
1315 1328 0
1317 1330 0
1319 1332 0
1321 1334 0
1323 1336 0
1325 1338 0
1327 1340 0
1329 1342 0
1331 1344 0
1333 1346 0
1335 1348 0
1337 1350 0
1339 1352 0
1341 1354 0
1343 1356 0
1345 1358 0
1347 1360 0
1223 1241 1256 0
1223 1243 1258 0
1223 1245 1260 0
1223 1247 1262 0
1223 1249 1264 0
1225 1253 1268 0
1225 1255 1270 0
1225 1257 1272 0
1225 1259 1274 0
1225 1261 1276 0
1227 1265 1280 0
1227 1267 1282 0
1227 1269 1284 0
1227 1271 1286 0
1227 1273 1288 0
1229 1277 1292 0
1229 1279 1294 0
1229 1281 1296 0
1229 1283 1298 0
1229 1285 1300 0
1231 1289 1304 0
1231 1291 1306 0
1231 1293 1308 0
1231 1295 1310 0
1231 1297 1312 0
1233 1301 1316 0
1233 1303 1318 0
1233 1305 1320 0
1233 1307 1322 0
1233 1309 1324 0
1235 1313 1328 0
1235 1315 1330 0
1235 1317 1332 0
1235 1319 1334 0
1235 1321 1336 0
1237 1325 1340 0
1237 1327 1342 0
1237 1329 1344 0
1237 1331 1346 0
1237 1333 1348 0
1239 1337 1352 0
1239 1339 1354 0
1239 1341 1356 0
1239 1343 1358 0
1239 1345 1360 0
1223 1251 0
1225 1263 0
1227 1275 0
1229 1287 0
1231 1299 0
1233 1311 0
1235 1323 0
1237 1335 0
1239 1347 0
2 0
1 2 0
-1 -2 0
3 4 0
-3 -4 0
5 6 0
-5 -6 0
7 8 0
-7 -8 0
9 10 0
-9 -10 0
11 12 0
-11 -12 0
13 14 0
-13 -14 0
15 16 0
-15 -16 0
17 18 0
-17 -18 0
19 20 0
-19 -20 0
21 22 0
-21 -22 0
23 24 0
-23 -24 0
25 26 0
-25 -26 0
27 28 0
-27 -28 0
29 30 0
-29 -30 0
31 32 0
-31 -32 0
33 34 0
-33 -34 0
35 36 0
-35 -36 0
37 38 0
-37 -38 0
39 40 0
-39 -40 0
41 42 0
-41 -42 0
43 44 0
-43 -44 0
45 46 0
-45 -46 0
47 48 0
-47 -48 0
49 50 0
-49 -50 0
51 52 0
-51 -52 0
53 54 0
-53 -54 0
55 56 0
-55 -56 0
57 58 0
-57 -58 0
59 60 0
-59 -60 0
61 62 0
-61 -62 0
63 64 0
-63 -64 0
65 66 0
-65 -66 0
67 68 0
-67 -68 0
69 70 0
-69 -70 0
71 72 0
-71 -72 0
73 74 0
-73 -74 0
75 76 0
-75 -76 0
77 78 0
-77 -78 0
79 80 0
-79 -80 0
81 82 0
-81 -82 0
83 84 0
-83 -84 0
85 86 0
-85 -86 0
87 88 0
-87 -88 0
89 90 0
-89 -90 0
91 92 0
-91 -92 0
93 94 0
-93 -94 0
95 96 0
-95 -96 0
97 98 0
-97 -98 0
99 100 0
-99 -100 0
101 102 0
-101 -102 0
103 104 0
-103 -104 0
105 106 0
-105 -106 0
107 108 0
-107 -108 0
109 110 0
-109 -110 0
111 112 0
-111 -112 0
113 114 0
-113 -114 0
115 116 0
-115 -116 0
117 118 0
-117 -118 0
119 120 0
-119 -120 0
121 122 0
-121 -122 0
123 124 0
-123 -124 0
125 126 0
-125 -126 0
127 128 0
-127 -128 0
129 130 0
-129 -130 0
131 132 0
-131 -132 0
133 134 0
-133 -134 0
135 136 0
-135 -136 0
137 138 0
-137 -138 0
139 140 0
-139 -140 0
141 142 0
-141 -142 0
143 144 0
-143 -144 0
145 146 0
-145 -146 0
147 148 0
-147 -148 0
149 150 0
-149 -150 0
151 152 0
-151 -152 0
153 154 0
-153 -154 0
155 156 0
-155 -156 0
157 158 0
-157 -158 0
159 160 0
-159 -160 0
161 162 0
-161 -162 0
163 164 0
-163 -164 0
165 166 0
-165 -166 0
167 168 0
-167 -168 0
169 170 0
-169 -170 0
171 172 0
-171 -172 0
173 174 0
-173 -174 0
175 176 0
-175 -176 0
177 178 0
-177 -178 0
179 180 0
-179 -180 0
181 182 0
-181 -182 0
183 184 0
-183 -184 0
185 186 0
-185 -186 0
187 188 0
-187 -188 0
189 190 0
-189 -190 0
191 192 0
-191 -192 0
193 194 0
-193 -194 0
195 196 0
-195 -196 0
197 198 0
-197 -198 0
199 200 0
-199 -200 0
201 202 0
-201 -202 0
203 204 0
-203 -204 0
205 206 0
-205 -206 0
207 208 0
-207 -208 0
209 210 0
-209 -210 0
211 212 0
-211 -212 0
213 214 0
-213 -214 0
215 216 0
-215 -216 0
217 218 0
-217 -218 0
219 220 0
-219 -220 0
221 222 0
-221 -222 0
223 224 0
-223 -224 0
225 226 0
-225 -226 0
227 228 0
-227 -228 0
229 230 0
-229 -230 0
231 232 0
-231 -232 0
233 234 0
-233 -234 0
235 236 0
-235 -236 0
237 238 0
-237 -238 0
239 240 0
-239 -240 0
241 242 0
-241 -242 0
243 244 0
-243 -244 0
245 246 0
-245 -246 0
247 248 0
-247 -248 0
249 250 0
-249 -250 0
251 252 0
-251 -252 0
253 254 0
-253 -254 0
255 256 0
-255 -256 0
257 258 0
-257 -258 0
259 260 0
-259 -260 0
261 262 0
-261 -262 0
263 264 0
-263 -264 0
265 266 0
-265 -266 0
267 268 0
-267 -268 0
269 270 0
-269 -270 0
271 272 0
-271 -272 0
273 274 0
-273 -274 0
275 276 0
-275 -276 0
277 278 0
-277 -278 0
279 280 0
-279 -280 0
281 282 0
-281 -282 0
283 284 0
-283 -284 0
285 286 0
-285 -286 0
287 288 0
-287 -288 0
289 290 0
-289 -290 0
291 292 0
-291 -292 0
293 294 0
-293 -294 0
295 296 0
-295 -296 0
297 298 0
-297 -298 0
299 300 0
-299 -300 0
301 302 0
-301 -302 0
303 304 0
-303 -304 0
305 306 0
-305 -306 0
307 308 0
-307 -308 0
309 310 0
-309 -310 0
311 312 0
-311 -312 0
313 314 0
-313 -314 0
315 316 0
-315 -316 0
317 318 0
-317 -318 0
319 320 0
-319 -320 0
321 322 0
-321 -322 0
323 324 0
-323 -324 0
325 326 0
-325 -326 0
327 328 0
-327 -328 0
329 330 0
-329 -330 0
331 332 0
-331 -332 0
333 334 0
-333 -334 0
335 336 0
-335 -336 0
337 338 0
-337 -338 0
339 340 0
-339 -340 0
341 342 0
-341 -342 0
343 344 0
-343 -344 0
345 346 0
-345 -346 0
347 348 0
-347 -348 0
349 350 0
-349 -350 0
351 352 0
-351 -352 0
353 354 0
-353 -354 0
355 356 0
-355 -356 0
357 358 0
-357 -358 0
359 360 0
-359 -360 0
361 362 0
-361 -362 0
363 364 0
-363 -364 0
365 366 0
-365 -366 0
367 368 0
-367 -368 0
369 370 0
-369 -370 0
371 372 0
-371 -372 0
373 374 0
-373 -374 0
375 376 0
-375 -376 0
377 378 0
-377 -378 0
379 380 0
-379 -380 0
381 382 0
-381 -382 0
383 384 0
-383 -384 0
385 386 0
-385 -386 0
387 388 0
-387 -388 0
389 390 0
-389 -390 0
391 392 0
-391 -392 0
393 394 0
-393 -394 0
395 396 0
-395 -396 0
397 398 0
-397 -398 0
399 400 0
-399 -400 0
401 402 0
-401 -402 0
403 404 0
-403 -404 0
405 406 0
-405 -406 0
407 408 0
-407 -408 0
409 410 0
-409 -410 0
411 412 0
-411 -412 0
413 414 0
-413 -414 0
415 416 0
-415 -416 0
417 418 0
-417 -418 0
419 420 0
-419 -420 0
421 422 0
-421 -422 0
423 424 0
-423 -424 0
425 426 0
-425 -426 0
427 428 0
-427 -428 0
429 430 0
-429 -430 0
431 432 0
-431 -432 0
433 434 0
-433 -434 0
435 436 0
-435 -436 0
437 438 0
-437 -438 0
439 440 0
-439 -440 0
441 442 0
-441 -442 0
443 444 0
-443 -444 0
445 446 0
-445 -446 0
447 448 0
-447 -448 0
449 450 0
-449 -450 0
451 452 0
-451 -452 0
453 454 0
-453 -454 0
455 456 0
-455 -456 0
457 458 0
-457 -458 0
459 460 0
-459 -460 0
461 462 0
-461 -462 0
463 464 0
-463 -464 0
465 466 0
-465 -466 0
467 468 0
-467 -468 0
469 470 0
-469 -470 0
471 472 0
-471 -472 0
473 474 0
-473 -474 0
475 476 0
-475 -476 0
477 478 0
-477 -478 0
479 480 0
-479 -480 0
481 482 0
-481 -482 0
483 484 0
-483 -484 0
485 486 0
-485 -486 0
487 488 0
-487 -488 0
489 490 0
-489 -490 0
491 492 0
-491 -492 0
493 494 0
-493 -494 0
495 496 0
-495 -496 0
497 498 0
-497 -498 0
499 500 0
-499 -500 0
501 502 0
-501 -502 0
503 504 0
-503 -504 0
505 506 0
-505 -506 0
507 508 0
-507 -508 0
509 510 0
-509 -510 0
511 512 0
-511 -512 0
513 514 0
-513 -514 0
515 516 0
-515 -516 0
517 518 0
-517 -518 0
519 520 0
-519 -520 0
521 522 0
-521 -522 0
523 524 0
-523 -524 0
525 526 0
-525 -526 0
527 528 0
-527 -528 0
529 530 0
-529 -530 0
531 532 0
-531 -532 0
533 534 0
-533 -534 0
535 536 0
-535 -536 0
537 538 0
-537 -538 0
539 540 0
-539 -540 0
541 542 0
-541 -542 0
543 544 0
-543 -544 0
545 546 0
-545 -546 0
547 548 0
-547 -548 0
549 550 0
-549 -550 0
551 552 0
-551 -552 0
553 554 0
-553 -554 0
555 556 0
-555 -556 0
557 558 0
-557 -558 0
559 560 0
-559 -560 0
561 562 0
-561 -562 0
563 564 0
-563 -564 0
565 566 0
-565 -566 0
567 568 0
-567 -568 0
569 570 0
-569 -570 0
571 572 0
-571 -572 0
573 574 0
-573 -574 0
575 576 0
-575 -576 0
577 578 0
-577 -578 0
579 580 0
-579 -580 0
581 582 0
-581 -582 0
583 584 0
-583 -584 0
585 586 0
-585 -586 0
587 588 0
-587 -588 0
589 590 0
-589 -590 0
591 592 0
-591 -592 0
593 594 0
-593 -594 0
595 596 0
-595 -596 0
597 598 0
-597 -598 0
599 600 0
-599 -600 0
601 602 0
-601 -602 0
603 604 0
-603 -604 0
605 606 0
-605 -606 0
607 608 0
-607 -608 0
609 610 0
-609 -610 0
611 612 0
-611 -612 0
613 614 0
-613 -614 0
615 616 0
-615 -616 0
617 618 0
-617 -618 0
619 620 0
-619 -620 0
621 622 0
-621 -622 0
623 624 0
-623 -624 0
625 626 0
-625 -626 0
627 628 0
-627 -628 0
629 630 0
-629 -630 0
631 632 0
-631 -632 0
633 634 0
-633 -634 0
635 636 0
-635 -636 0
637 638 0
-637 -638 0
639 640 0
-639 -640 0
641 642 0
-641 -642 0
643 644 0
-643 -644 0
645 646 0
-645 -646 0
647 648 0
-647 -648 0
649 650 0
-649 -650 0
651 652 0
-651 -652 0
653 654 0
-653 -654 0
655 656 0
-655 -656 0
657 658 0
-657 -658 0
659 660 0
-659 -660 0
661 662 0
-661 -662 0
663 664 0
-663 -664 0
665 666 0
-665 -666 0
667 668 0
-667 -668 0
669 670 0
-669 -670 0
671 672 0
-671 -672 0
673 674 0
-673 -674 0
675 676 0
-675 -676 0
677 678 0
-677 -678 0
679 680 0
-679 -680 0
681 682 0
-681 -682 0
683 684 0
-683 -684 0
685 686 0
-685 -686 0
687 688 0
-687 -688 0
689 690 0
-689 -690 0
691 692 0
-691 -692 0
693 694 0
-693 -694 0
695 696 0
-695 -696 0
697 698 0
-697 -698 0
699 700 0
-699 -700 0
701 702 0
-701 -702 0
703 704 0
-703 -704 0
705 706 0
-705 -706 0
707 708 0
-707 -708 0
709 710 0
-709 -710 0
711 712 0
-711 -712 0
713 714 0
-713 -714 0
715 716 0
-715 -716 0
717 718 0
-717 -718 0
719 720 0
-719 -720 0
721 722 0
-721 -722 0
723 724 0
-723 -724 0
725 726 0
-725 -726 0
727 728 0
-727 -728 0
729 730 0
-729 -730 0
731 732 0
-731 -732 0
733 734 0
-733 -734 0
735 736 0
-735 -736 0
737 738 0
-737 -738 0
739 740 0
-739 -740 0
741 742 0
-741 -742 0
743 744 0
-743 -744 0
745 746 0
-745 -746 0
747 748 0
-747 -748 0
749 750 0
-749 -750 0
751 752 0
-751 -752 0
753 754 0
-753 -754 0
755 756 0
-755 -756 0
757 758 0
-757 -758 0
759 760 0
-759 -760 0
761 762 0
-761 -762 0
763 764 0
-763 -764 0
765 766 0
-765 -766 0
767 768 0
-767 -768 0
769 770 0
-769 -770 0
771 772 0
-771 -772 0
773 774 0
-773 -774 0
775 776 0
-775 -776 0
777 778 0
-777 -778 0
779 780 0
-779 -780 0
781 782 0
-781 -782 0
783 784 0
-783 -784 0
785 786 0
-785 -786 0
787 788 0
-787 -788 0
789 790 0
-789 -790 0
791 792 0
-791 -792 0
793 794 0
-793 -794 0
795 796 0
-795 -796 0
797 798 0
-797 -798 0
799 800 0
-799 -800 0
801 802 0
-801 -802 0
803 804 0
-803 -804 0
805 806 0
-805 -806 0
807 808 0
-807 -808 0
809 810 0
-809 -810 0
811 812 0
-811 -812 0
813 814 0
-813 -814 0
815 816 0
-815 -816 0
817 818 0
-817 -818 0
819 820 0
-819 -820 0
821 822 0
-821 -822 0
823 824 0
-823 -824 0
825 826 0
-825 -826 0
827 828 0
-827 -828 0
829 830 0
-829 -830 0
831 832 0
-831 -832 0
833 834 0
-833 -834 0
835 836 0
-835 -836 0
837 838 0
-837 -838 0
839 840 0
-839 -840 0
841 842 0
-841 -842 0
843 844 0
-843 -844 0
845 846 0
-845 -846 0
847 848 0
-847 -848 0
849 850 0
-849 -850 0
851 852 0
-851 -852 0
853 854 0
-853 -854 0
855 856 0
-855 -856 0
857 858 0
-857 -858 0
859 860 0
-859 -860 0
861 862 0
-861 -862 0
863 864 0
-863 -864 0
865 866 0
-865 -866 0
867 868 0
-867 -868 0
869 870 0
-869 -870 0
871 872 0
-871 -872 0
873 874 0
-873 -874 0
875 876 0
-875 -876 0
877 878 0
-877 -878 0
879 880 0
-879 -880 0
881 882 0
-881 -882 0
883 884 0
-883 -884 0
885 886 0
-885 -886 0
887 888 0
-887 -888 0
889 890 0
-889 -890 0
891 892 0
-891 -892 0
893 894 0
-893 -894 0
895 896 0
-895 -896 0
897 898 0
-897 -898 0
899 900 0
-899 -900 0
901 902 0
-901 -902 0
903 904 0
-903 -904 0
905 906 0
-905 -906 0
907 908 0
-907 -908 0
909 910 0
-909 -910 0
911 912 0
-911 -912 0
913 914 0
-913 -914 0
915 916 0
-915 -916 0
917 918 0
-917 -918 0
919 920 0
-919 -920 0
921 922 0
-921 -922 0
923 924 0
-923 -924 0
925 926 0
-925 -926 0
927 928 0
-927 -928 0
929 930 0
-929 -930 0
931 932 0
-931 -932 0
933 934 0
-933 -934 0
935 936 0
-935 -936 0
937 938 0
-937 -938 0
939 940 0
-939 -940 0
941 942 0
-941 -942 0
943 944 0
-943 -944 0
945 946 0
-945 -946 0
947 948 0
-947 -948 0
949 950 0
-949 -950 0
951 952 0
-951 -952 0
953 954 0
-953 -954 0
955 956 0
-955 -956 0
957 958 0
-957 -958 0
959 960 0
-959 -960 0
961 962 0
-961 -962 0
963 964 0
-963 -964 0
965 966 0
-965 -966 0
967 968 0
-967 -968 0
969 970 0
-969 -970 0
971 972 0
-971 -972 0
973 974 0
-973 -974 0
975 976 0
-975 -976 0
977 978 0
-977 -978 0
979 980 0
-979 -980 0
981 982 0
-981 -982 0
983 984 0
-983 -984 0
985 986 0
-985 -986 0
987 988 0
-987 -988 0
989 990 0
-989 -990 0
991 992 0
-991 -992 0
993 994 0
-993 -994 0
995 996 0
-995 -996 0
997 998 0
-997 -998 0
999 1000 0
-999 -1000 0
1001 1002 0
-1001 -1002 0
1003 1004 0
-1003 -1004 0
1005 1006 0
-1005 -1006 0
1007 1008 0
-1007 -1008 0
1009 1010 0
-1009 -1010 0
1011 1012 0
-1011 -1012 0
1013 1014 0
-1013 -1014 0
1015 1016 0
-1015 -1016 0
1017 1018 0
-1017 -1018 0
1019 1020 0
-1019 -1020 0
1021 1022 0
-1021 -1022 0
1023 1024 0
-1023 -1024 0
1025 1026 0
-1025 -1026 0
1027 1028 0
-1027 -1028 0
1029 1030 0
-1029 -1030 0
1031 1032 0
-1031 -1032 0
1033 1034 0
-1033 -1034 0
1035 1036 0
-1035 -1036 0
1037 1038 0
-1037 -1038 0
1039 1040 0
-1039 -1040 0
1041 1042 0
-1041 -1042 0
1043 1044 0
-1043 -1044 0
1045 1046 0
-1045 -1046 0
1047 1048 0
-1047 -1048 0
1049 1050 0
-1049 -1050 0
1051 1052 0
-1051 -1052 0
1053 1054 0
-1053 -1054 0
1055 1056 0
-1055 -1056 0
1057 1058 0
-1057 -1058 0
1059 1060 0
-1059 -1060 0
1061 1062 0
-1061 -1062 0
1063 1064 0
-1063 -1064 0
1065 1066 0
-1065 -1066 0
1067 1068 0
-1067 -1068 0
1069 1070 0
-1069 -1070 0
1071 1072 0
-1071 -1072 0
1073 1074 0
-1073 -1074 0
1075 1076 0
-1075 -1076 0
1077 1078 0
-1077 -1078 0
1079 1080 0
-1079 -1080 0
1081 1082 0
-1081 -1082 0
1083 1084 0
-1083 -1084 0
1085 1086 0
-1085 -1086 0
1087 1088 0
-1087 -1088 0
1089 1090 0
-1089 -1090 0
1091 1092 0
-1091 -1092 0
1093 1094 0
-1093 -1094 0
1095 1096 0
-1095 -1096 0
1097 1098 0
-1097 -1098 0
1099 1100 0
-1099 -1100 0
1101 1102 0
-1101 -1102 0
1103 1104 0
-1103 -1104 0
1105 1106 0
-1105 -1106 0
1107 1108 0
-1107 -1108 0
1109 1110 0
-1109 -1110 0
1111 1112 0
-1111 -1112 0
1113 1114 0
-1113 -1114 0
1115 1116 0
-1115 -1116 0
1117 1118 0
-1117 -1118 0
1119 1120 0
-1119 -1120 0
1121 1122 0
-1121 -1122 0
1123 1124 0
-1123 -1124 0
1125 1126 0
-1125 -1126 0
1127 1128 0
-1127 -1128 0
1129 1130 0
-1129 -1130 0
1131 1132 0
-1131 -1132 0
1133 1134 0
-1133 -1134 0
1135 1136 0
-1135 -1136 0
1137 1138 0
-1137 -1138 0
1139 1140 0
-1139 -1140 0
1141 1142 0
-1141 -1142 0
1143 1144 0
-1143 -1144 0
1145 1146 0
-1145 -1146 0
1147 1148 0
-1147 -1148 0
1149 1150 0
-1149 -1150 0
1151 1152 0
-1151 -1152 0
1153 1154 0
-1153 -1154 0
1155 1156 0
-1155 -1156 0
1157 1158 0
-1157 -1158 0
1159 1160 0
-1159 -1160 0
1161 1162 0
-1161 -1162 0
1163 1164 0
-1163 -1164 0
1165 1166 0
-1165 -1166 0
1167 1168 0
-1167 -1168 0
1169 1170 0
-1169 -1170 0
1171 1172 0
-1171 -1172 0
1173 1174 0
-1173 -1174 0
1175 1176 0
-1175 -1176 0
1177 1178 0
-1177 -1178 0
1179 1180 0
-1179 -1180 0
1181 1182 0
-1181 -1182 0
1183 1184 0
-1183 -1184 0
1185 1186 0
-1185 -1186 0
1187 1188 0
-1187 -1188 0
1189 1190 0
-1189 -1190 0
1191 1192 0
-1191 -1192 0
1193 1194 0
-1193 -1194 0
1195 1196 0
-1195 -1196 0
1197 1198 0
-1197 -1198 0
1199 1200 0
-1199 -1200 0
1201 1202 0
-1201 -1202 0
1203 1204 0
-1203 -1204 0
1205 1206 0
-1205 -1206 0
1207 1208 0
-1207 -1208 0
1209 1210 0
-1209 -1210 0
1211 1212 0
-1211 -1212 0
1213 1214 0
-1213 -1214 0
1215 1216 0
-1215 -1216 0
1217 1218 0
-1217 -1218 0
1219 1220 0
-1219 -1220 0
1221 1222 0
-1221 -1222 0
1223 1224 0
-1223 -1224 0
1225 1226 0
-1225 -1226 0
1227 1228 0
-1227 -1228 0
1229 1230 0
-1229 -1230 0
1231 1232 0
-1231 -1232 0
1233 1234 0
-1233 -1234 0
1235 1236 0
-1235 -1236 0
1237 1238 0
-1237 -1238 0
1239 1240 0
-1239 -1240 0
1241 1242 0
-1241 -1242 0
1243 1244 0
-1243 -1244 0
1245 1246 0
-1245 -1246 0
1247 1248 0
-1247 -1248 0
1249 1250 0
-1249 -1250 0
1251 1252 0
-1251 -1252 0
1253 1254 0
-1253 -1254 0
1255 1256 0
-1255 -1256 0
1257 1258 0
-1257 -1258 0
1259 1260 0
-1259 -1260 0
1261 1262 0
-1261 -1262 0
1263 1264 0
-1263 -1264 0
1265 1266 0
-1265 -1266 0
1267 1268 0
-1267 -1268 0
1269 1270 0
-1269 -1270 0
1271 1272 0
-1271 -1272 0
1273 1274 0
-1273 -1274 0
1275 1276 0
-1275 -1276 0
1277 1278 0
-1277 -1278 0
1279 1280 0
-1279 -1280 0
1281 1282 0
-1281 -1282 0
1283 1284 0
-1283 -1284 0
1285 1286 0
-1285 -1286 0
1287 1288 0
-1287 -1288 0
1289 1290 0
-1289 -1290 0
1291 1292 0
-1291 -1292 0
1293 1294 0
-1293 -1294 0
1295 1296 0
-1295 -1296 0
1297 1298 0
-1297 -1298 0
1299 1300 0
-1299 -1300 0
1301 1302 0
-1301 -1302 0
1303 1304 0
-1303 -1304 0
1305 1306 0
-1305 -1306 0
1307 1308 0
-1307 -1308 0
1309 1310 0
-1309 -1310 0
1311 1312 0
-1311 -1312 0
1313 1314 0
-1313 -1314 0
1315 1316 0
-1315 -1316 0
1317 1318 0
-1317 -1318 0
1319 1320 0
-1319 -1320 0
1321 1322 0
-1321 -1322 0
1323 1324 0
-1323 -1324 0
1325 1326 0
-1325 -1326 0
1327 1328 0
-1327 -1328 0
1329 1330 0
-1329 -1330 0
1331 1332 0
-1331 -1332 0
1333 1334 0
-1333 -1334 0
1335 1336 0
-1335 -1336 0
1337 1338 0
-1337 -1338 0
1339 1340 0
-1339 -1340 0
1341 1342 0
-1341 -1342 0
1343 1344 0
-1343 -1344 0
1345 1346 0
-1345 -1346 0
1347 1348 0
-1347 -1348 0
1349 1350 0
-1349 -1350 0
1351 1352 0
-1351 -1352 0
1353 1354 0
-1353 -1354 0
1355 1356 0
-1355 -1356 0
1357 1358 0
-1357 -1358 0
1359 1360 0
-1359 -1360 0
